p cnf 210 10194
-1 -21 2 0
-1 -22 3 0
-1 -23 4 0
-1 -24 5 0
-1 -25 6 0
-1 -26 7 0
-1 -27 8 0
-1 -28 9 0
-1 -29 10 0
-1 -30 11 0
-1 -31 12 0
-1 -32 13 0
-1 -33 14 0
-1 -34 15 0
-1 -35 16 0
-1 -36 17 0
-1 -37 18 0
-1 -38 19 0
-1 -39 20 0
-2 21 1 0
-2 -40 3 0
-2 -41 4 0
-2 -42 5 0
-2 -43 6 0
-2 -44 7 0
-2 -45 8 0
-2 -46 9 0
-2 -47 10 0
-2 -48 11 0
-2 -49 12 0
-2 -50 13 0
-2 -51 14 0
-2 -52 15 0
-2 -53 16 0
-2 -54 17 0
-2 -55 18 0
-2 -56 19 0
-2 -57 20 0
-3 22 1 0
-3 40 2 0
-3 -58 4 0
-3 -59 5 0
-3 -60 6 0
-3 -61 7 0
-3 -62 8 0
-3 -63 9 0
-3 -64 10 0
-3 -65 11 0
-3 -66 12 0
-3 -67 13 0
-3 -68 14 0
-3 -69 15 0
-3 -70 16 0
-3 -71 17 0
-3 -72 18 0
-3 -73 19 0
-3 -74 20 0
-4 23 1 0
-4 41 2 0
-4 58 3 0
-4 -75 5 0
-4 -76 6 0
-4 -77 7 0
-4 -78 8 0
-4 -79 9 0
-4 -80 10 0
-4 -81 11 0
-4 -82 12 0
-4 -83 13 0
-4 -84 14 0
-4 -85 15 0
-4 -86 16 0
-4 -87 17 0
-4 -88 18 0
-4 -89 19 0
-4 -90 20 0
-5 24 1 0
-5 42 2 0
-5 59 3 0
-5 75 4 0
-5 -91 6 0
-5 -92 7 0
-5 -93 8 0
-5 -94 9 0
-5 -95 10 0
-5 -96 11 0
-5 -97 12 0
-5 -98 13 0
-5 -99 14 0
-5 -100 15 0
-5 -101 16 0
-5 -102 17 0
-5 -103 18 0
-5 -104 19 0
-5 -105 20 0
-6 25 1 0
-6 43 2 0
-6 60 3 0
-6 76 4 0
-6 91 5 0
-6 -106 7 0
-6 -107 8 0
-6 -108 9 0
-6 -109 10 0
-6 -110 11 0
-6 -111 12 0
-6 -112 13 0
-6 -113 14 0
-6 -114 15 0
-6 -115 16 0
-6 -116 17 0
-6 -117 18 0
-6 -118 19 0
-6 -119 20 0
-7 26 1 0
-7 44 2 0
-7 61 3 0
-7 77 4 0
-7 92 5 0
-7 106 6 0
-7 -120 8 0
-7 -121 9 0
-7 -122 10 0
-7 -123 11 0
-7 -124 12 0
-7 -125 13 0
-7 -126 14 0
-7 -127 15 0
-7 -128 16 0
-7 -129 17 0
-7 -130 18 0
-7 -131 19 0
-7 -132 20 0
-8 27 1 0
-8 45 2 0
-8 62 3 0
-8 78 4 0
-8 93 5 0
-8 107 6 0
-8 120 7 0
-8 -133 9 0
-8 -134 10 0
-8 -135 11 0
-8 -136 12 0
-8 -137 13 0
-8 -138 14 0
-8 -139 15 0
-8 -140 16 0
-8 -141 17 0
-8 -142 18 0
-8 -143 19 0
-8 -144 20 0
-9 28 1 0
-9 46 2 0
-9 63 3 0
-9 79 4 0
-9 94 5 0
-9 108 6 0
-9 121 7 0
-9 133 8 0
-9 -145 10 0
-9 -146 11 0
-9 -147 12 0
-9 -148 13 0
-9 -149 14 0
-9 -150 15 0
-9 -151 16 0
-9 -152 17 0
-9 -153 18 0
-9 -154 19 0
-9 -155 20 0
-10 29 1 0
-10 47 2 0
-10 64 3 0
-10 80 4 0
-10 95 5 0
-10 109 6 0
-10 122 7 0
-10 134 8 0
-10 145 9 0
-10 -156 11 0
-10 -157 12 0
-10 -158 13 0
-10 -159 14 0
-10 -160 15 0
-10 -161 16 0
-10 -162 17 0
-10 -163 18 0
-10 -164 19 0
-10 -165 20 0
-11 30 1 0
-11 48 2 0
-11 65 3 0
-11 81 4 0
-11 96 5 0
-11 110 6 0
-11 123 7 0
-11 135 8 0
-11 146 9 0
-11 156 10 0
-11 -166 12 0
-11 -167 13 0
-11 -168 14 0
-11 -169 15 0
-11 -170 16 0
-11 -171 17 0
-11 -172 18 0
-11 -173 19 0
-11 -174 20 0
-12 31 1 0
-12 49 2 0
-12 66 3 0
-12 82 4 0
-12 97 5 0
-12 111 6 0
-12 124 7 0
-12 136 8 0
-12 147 9 0
-12 157 10 0
-12 166 11 0
-12 -175 13 0
-12 -176 14 0
-12 -177 15 0
-12 -178 16 0
-12 -179 17 0
-12 -180 18 0
-12 -181 19 0
-12 -182 20 0
-13 32 1 0
-13 50 2 0
-13 67 3 0
-13 83 4 0
-13 98 5 0
-13 112 6 0
-13 125 7 0
-13 137 8 0
-13 148 9 0
-13 158 10 0
-13 167 11 0
-13 175 12 0
-13 -183 14 0
-13 -184 15 0
-13 -185 16 0
-13 -186 17 0
-13 -187 18 0
-13 -188 19 0
-13 -189 20 0
-14 33 1 0
-14 51 2 0
-14 68 3 0
-14 84 4 0
-14 99 5 0
-14 113 6 0
-14 126 7 0
-14 138 8 0
-14 149 9 0
-14 159 10 0
-14 168 11 0
-14 176 12 0
-14 183 13 0
-14 -190 15 0
-14 -191 16 0
-14 -192 17 0
-14 -193 18 0
-14 -194 19 0
-14 -195 20 0
-15 34 1 0
-15 52 2 0
-15 69 3 0
-15 85 4 0
-15 100 5 0
-15 114 6 0
-15 127 7 0
-15 139 8 0
-15 150 9 0
-15 160 10 0
-15 169 11 0
-15 177 12 0
-15 184 13 0
-15 190 14 0
-15 -196 16 0
-15 -197 17 0
-15 -198 18 0
-15 -199 19 0
-15 -200 20 0
-16 35 1 0
-16 53 2 0
-16 70 3 0
-16 86 4 0
-16 101 5 0
-16 115 6 0
-16 128 7 0
-16 140 8 0
-16 151 9 0
-16 161 10 0
-16 170 11 0
-16 178 12 0
-16 185 13 0
-16 191 14 0
-16 196 15 0
-16 -201 17 0
-16 -202 18 0
-16 -203 19 0
-16 -204 20 0
-17 36 1 0
-17 54 2 0
-17 71 3 0
-17 87 4 0
-17 102 5 0
-17 116 6 0
-17 129 7 0
-17 141 8 0
-17 152 9 0
-17 162 10 0
-17 171 11 0
-17 179 12 0
-17 186 13 0
-17 192 14 0
-17 197 15 0
-17 201 16 0
-17 -205 18 0
-17 -206 19 0
-17 -207 20 0
-18 37 1 0
-18 55 2 0
-18 72 3 0
-18 88 4 0
-18 103 5 0
-18 117 6 0
-18 130 7 0
-18 142 8 0
-18 153 9 0
-18 163 10 0
-18 172 11 0
-18 180 12 0
-18 187 13 0
-18 193 14 0
-18 198 15 0
-18 202 16 0
-18 205 17 0
-18 -208 19 0
-18 -209 20 0
-19 38 1 0
-19 56 2 0
-19 73 3 0
-19 89 4 0
-19 104 5 0
-19 118 6 0
-19 131 7 0
-19 143 8 0
-19 154 9 0
-19 164 10 0
-19 173 11 0
-19 181 12 0
-19 188 13 0
-19 194 14 0
-19 199 15 0
-19 203 16 0
-19 206 17 0
-19 208 18 0
-19 -210 20 0
-20 39 1 0
-20 57 2 0
-20 74 3 0
-20 90 4 0
-20 105 5 0
-20 119 6 0
-20 132 7 0
-20 144 8 0
-20 155 9 0
-20 165 10 0
-20 174 11 0
-20 182 12 0
-20 189 13 0
-20 195 14 0
-20 200 15 0
-20 204 16 0
-20 207 17 0
-20 209 18 0
-20 210 19 0
1 -2 21 0
1 -3 22 0
1 -4 23 0
1 -5 24 0
1 -6 25 0
1 -7 26 0
1 -8 27 0
1 -9 28 0
1 -10 29 0
1 -11 30 0
1 -12 31 0
1 -13 32 0
1 -14 33 0
1 -15 34 0
1 -16 35 0
1 -17 36 0
1 -18 37 0
1 -19 38 0
1 -20 39 0
-21 2 -1 0
-21 -40 22 0
-21 -41 23 0
-21 -42 24 0
-21 -43 25 0
-21 -44 26 0
-21 -45 27 0
-21 -46 28 0
-21 -47 29 0
-21 -48 30 0
-21 -49 31 0
-21 -50 32 0
-21 -51 33 0
-21 -52 34 0
-21 -53 35 0
-21 -54 36 0
-21 -55 37 0
-21 -56 38 0
-21 -57 39 0
-22 3 -1 0
-22 40 21 0
-22 -58 23 0
-22 -59 24 0
-22 -60 25 0
-22 -61 26 0
-22 -62 27 0
-22 -63 28 0
-22 -64 29 0
-22 -65 30 0
-22 -66 31 0
-22 -67 32 0
-22 -68 33 0
-22 -69 34 0
-22 -70 35 0
-22 -71 36 0
-22 -72 37 0
-22 -73 38 0
-22 -74 39 0
-23 4 -1 0
-23 41 21 0
-23 58 22 0
-23 -75 24 0
-23 -76 25 0
-23 -77 26 0
-23 -78 27 0
-23 -79 28 0
-23 -80 29 0
-23 -81 30 0
-23 -82 31 0
-23 -83 32 0
-23 -84 33 0
-23 -85 34 0
-23 -86 35 0
-23 -87 36 0
-23 -88 37 0
-23 -89 38 0
-23 -90 39 0
-24 5 -1 0
-24 42 21 0
-24 59 22 0
-24 75 23 0
-24 -91 25 0
-24 -92 26 0
-24 -93 27 0
-24 -94 28 0
-24 -95 29 0
-24 -96 30 0
-24 -97 31 0
-24 -98 32 0
-24 -99 33 0
-24 -100 34 0
-24 -101 35 0
-24 -102 36 0
-24 -103 37 0
-24 -104 38 0
-24 -105 39 0
-25 6 -1 0
-25 43 21 0
-25 60 22 0
-25 76 23 0
-25 91 24 0
-25 -106 26 0
-25 -107 27 0
-25 -108 28 0
-25 -109 29 0
-25 -110 30 0
-25 -111 31 0
-25 -112 32 0
-25 -113 33 0
-25 -114 34 0
-25 -115 35 0
-25 -116 36 0
-25 -117 37 0
-25 -118 38 0
-25 -119 39 0
-26 7 -1 0
-26 44 21 0
-26 61 22 0
-26 77 23 0
-26 92 24 0
-26 106 25 0
-26 -120 27 0
-26 -121 28 0
-26 -122 29 0
-26 -123 30 0
-26 -124 31 0
-26 -125 32 0
-26 -126 33 0
-26 -127 34 0
-26 -128 35 0
-26 -129 36 0
-26 -130 37 0
-26 -131 38 0
-26 -132 39 0
-27 8 -1 0
-27 45 21 0
-27 62 22 0
-27 78 23 0
-27 93 24 0
-27 107 25 0
-27 120 26 0
-27 -133 28 0
-27 -134 29 0
-27 -135 30 0
-27 -136 31 0
-27 -137 32 0
-27 -138 33 0
-27 -139 34 0
-27 -140 35 0
-27 -141 36 0
-27 -142 37 0
-27 -143 38 0
-27 -144 39 0
-28 9 -1 0
-28 46 21 0
-28 63 22 0
-28 79 23 0
-28 94 24 0
-28 108 25 0
-28 121 26 0
-28 133 27 0
-28 -145 29 0
-28 -146 30 0
-28 -147 31 0
-28 -148 32 0
-28 -149 33 0
-28 -150 34 0
-28 -151 35 0
-28 -152 36 0
-28 -153 37 0
-28 -154 38 0
-28 -155 39 0
-29 10 -1 0
-29 47 21 0
-29 64 22 0
-29 80 23 0
-29 95 24 0
-29 109 25 0
-29 122 26 0
-29 134 27 0
-29 145 28 0
-29 -156 30 0
-29 -157 31 0
-29 -158 32 0
-29 -159 33 0
-29 -160 34 0
-29 -161 35 0
-29 -162 36 0
-29 -163 37 0
-29 -164 38 0
-29 -165 39 0
-30 11 -1 0
-30 48 21 0
-30 65 22 0
-30 81 23 0
-30 96 24 0
-30 110 25 0
-30 123 26 0
-30 135 27 0
-30 146 28 0
-30 156 29 0
-30 -166 31 0
-30 -167 32 0
-30 -168 33 0
-30 -169 34 0
-30 -170 35 0
-30 -171 36 0
-30 -172 37 0
-30 -173 38 0
-30 -174 39 0
-31 12 -1 0
-31 49 21 0
-31 66 22 0
-31 82 23 0
-31 97 24 0
-31 111 25 0
-31 124 26 0
-31 136 27 0
-31 147 28 0
-31 157 29 0
-31 166 30 0
-31 -175 32 0
-31 -176 33 0
-31 -177 34 0
-31 -178 35 0
-31 -179 36 0
-31 -180 37 0
-31 -181 38 0
-31 -182 39 0
-32 13 -1 0
-32 50 21 0
-32 67 22 0
-32 83 23 0
-32 98 24 0
-32 112 25 0
-32 125 26 0
-32 137 27 0
-32 148 28 0
-32 158 29 0
-32 167 30 0
-32 175 31 0
-32 -183 33 0
-32 -184 34 0
-32 -185 35 0
-32 -186 36 0
-32 -187 37 0
-32 -188 38 0
-32 -189 39 0
-33 14 -1 0
-33 51 21 0
-33 68 22 0
-33 84 23 0
-33 99 24 0
-33 113 25 0
-33 126 26 0
-33 138 27 0
-33 149 28 0
-33 159 29 0
-33 168 30 0
-33 176 31 0
-33 183 32 0
-33 -190 34 0
-33 -191 35 0
-33 -192 36 0
-33 -193 37 0
-33 -194 38 0
-33 -195 39 0
-34 15 -1 0
-34 52 21 0
-34 69 22 0
-34 85 23 0
-34 100 24 0
-34 114 25 0
-34 127 26 0
-34 139 27 0
-34 150 28 0
-34 160 29 0
-34 169 30 0
-34 177 31 0
-34 184 32 0
-34 190 33 0
-34 -196 35 0
-34 -197 36 0
-34 -198 37 0
-34 -199 38 0
-34 -200 39 0
-35 16 -1 0
-35 53 21 0
-35 70 22 0
-35 86 23 0
-35 101 24 0
-35 115 25 0
-35 128 26 0
-35 140 27 0
-35 151 28 0
-35 161 29 0
-35 170 30 0
-35 178 31 0
-35 185 32 0
-35 191 33 0
-35 196 34 0
-35 -201 36 0
-35 -202 37 0
-35 -203 38 0
-35 -204 39 0
-36 17 -1 0
-36 54 21 0
-36 71 22 0
-36 87 23 0
-36 102 24 0
-36 116 25 0
-36 129 26 0
-36 141 27 0
-36 152 28 0
-36 162 29 0
-36 171 30 0
-36 179 31 0
-36 186 32 0
-36 192 33 0
-36 197 34 0
-36 201 35 0
-36 -205 37 0
-36 -206 38 0
-36 -207 39 0
-37 18 -1 0
-37 55 21 0
-37 72 22 0
-37 88 23 0
-37 103 24 0
-37 117 25 0
-37 130 26 0
-37 142 27 0
-37 153 28 0
-37 163 29 0
-37 172 30 0
-37 180 31 0
-37 187 32 0
-37 193 33 0
-37 198 34 0
-37 202 35 0
-37 205 36 0
-37 -208 38 0
-37 -209 39 0
-38 19 -1 0
-38 56 21 0
-38 73 22 0
-38 89 23 0
-38 104 24 0
-38 118 25 0
-38 131 26 0
-38 143 27 0
-38 154 28 0
-38 164 29 0
-38 173 30 0
-38 181 31 0
-38 188 32 0
-38 194 33 0
-38 199 34 0
-38 203 35 0
-38 206 36 0
-38 208 37 0
-38 -210 39 0
-39 20 -1 0
-39 57 21 0
-39 74 22 0
-39 90 23 0
-39 105 24 0
-39 119 25 0
-39 132 26 0
-39 144 27 0
-39 155 28 0
-39 165 29 0
-39 174 30 0
-39 182 31 0
-39 189 32 0
-39 195 33 0
-39 200 34 0
-39 204 35 0
-39 207 36 0
-39 209 37 0
-39 210 38 0
2 -1 -21 0
2 -3 40 0
2 -4 41 0
2 -5 42 0
2 -6 43 0
2 -7 44 0
2 -8 45 0
2 -9 46 0
2 -10 47 0
2 -11 48 0
2 -12 49 0
2 -13 50 0
2 -14 51 0
2 -15 52 0
2 -16 53 0
2 -17 54 0
2 -18 55 0
2 -19 56 0
2 -20 57 0
21 1 -2 0
21 -22 40 0
21 -23 41 0
21 -24 42 0
21 -25 43 0
21 -26 44 0
21 -27 45 0
21 -28 46 0
21 -29 47 0
21 -30 48 0
21 -31 49 0
21 -32 50 0
21 -33 51 0
21 -34 52 0
21 -35 53 0
21 -36 54 0
21 -37 55 0
21 -38 56 0
21 -39 57 0
-40 3 -2 0
-40 22 -21 0
-40 -58 41 0
-40 -59 42 0
-40 -60 43 0
-40 -61 44 0
-40 -62 45 0
-40 -63 46 0
-40 -64 47 0
-40 -65 48 0
-40 -66 49 0
-40 -67 50 0
-40 -68 51 0
-40 -69 52 0
-40 -70 53 0
-40 -71 54 0
-40 -72 55 0
-40 -73 56 0
-40 -74 57 0
-41 4 -2 0
-41 23 -21 0
-41 58 40 0
-41 -75 42 0
-41 -76 43 0
-41 -77 44 0
-41 -78 45 0
-41 -79 46 0
-41 -80 47 0
-41 -81 48 0
-41 -82 49 0
-41 -83 50 0
-41 -84 51 0
-41 -85 52 0
-41 -86 53 0
-41 -87 54 0
-41 -88 55 0
-41 -89 56 0
-41 -90 57 0
-42 5 -2 0
-42 24 -21 0
-42 59 40 0
-42 75 41 0
-42 -91 43 0
-42 -92 44 0
-42 -93 45 0
-42 -94 46 0
-42 -95 47 0
-42 -96 48 0
-42 -97 49 0
-42 -98 50 0
-42 -99 51 0
-42 -100 52 0
-42 -101 53 0
-42 -102 54 0
-42 -103 55 0
-42 -104 56 0
-42 -105 57 0
-43 6 -2 0
-43 25 -21 0
-43 60 40 0
-43 76 41 0
-43 91 42 0
-43 -106 44 0
-43 -107 45 0
-43 -108 46 0
-43 -109 47 0
-43 -110 48 0
-43 -111 49 0
-43 -112 50 0
-43 -113 51 0
-43 -114 52 0
-43 -115 53 0
-43 -116 54 0
-43 -117 55 0
-43 -118 56 0
-43 -119 57 0
-44 7 -2 0
-44 26 -21 0
-44 61 40 0
-44 77 41 0
-44 92 42 0
-44 106 43 0
-44 -120 45 0
-44 -121 46 0
-44 -122 47 0
-44 -123 48 0
-44 -124 49 0
-44 -125 50 0
-44 -126 51 0
-44 -127 52 0
-44 -128 53 0
-44 -129 54 0
-44 -130 55 0
-44 -131 56 0
-44 -132 57 0
-45 8 -2 0
-45 27 -21 0
-45 62 40 0
-45 78 41 0
-45 93 42 0
-45 107 43 0
-45 120 44 0
-45 -133 46 0
-45 -134 47 0
-45 -135 48 0
-45 -136 49 0
-45 -137 50 0
-45 -138 51 0
-45 -139 52 0
-45 -140 53 0
-45 -141 54 0
-45 -142 55 0
-45 -143 56 0
-45 -144 57 0
-46 9 -2 0
-46 28 -21 0
-46 63 40 0
-46 79 41 0
-46 94 42 0
-46 108 43 0
-46 121 44 0
-46 133 45 0
-46 -145 47 0
-46 -146 48 0
-46 -147 49 0
-46 -148 50 0
-46 -149 51 0
-46 -150 52 0
-46 -151 53 0
-46 -152 54 0
-46 -153 55 0
-46 -154 56 0
-46 -155 57 0
-47 10 -2 0
-47 29 -21 0
-47 64 40 0
-47 80 41 0
-47 95 42 0
-47 109 43 0
-47 122 44 0
-47 134 45 0
-47 145 46 0
-47 -156 48 0
-47 -157 49 0
-47 -158 50 0
-47 -159 51 0
-47 -160 52 0
-47 -161 53 0
-47 -162 54 0
-47 -163 55 0
-47 -164 56 0
-47 -165 57 0
-48 11 -2 0
-48 30 -21 0
-48 65 40 0
-48 81 41 0
-48 96 42 0
-48 110 43 0
-48 123 44 0
-48 135 45 0
-48 146 46 0
-48 156 47 0
-48 -166 49 0
-48 -167 50 0
-48 -168 51 0
-48 -169 52 0
-48 -170 53 0
-48 -171 54 0
-48 -172 55 0
-48 -173 56 0
-48 -174 57 0
-49 12 -2 0
-49 31 -21 0
-49 66 40 0
-49 82 41 0
-49 97 42 0
-49 111 43 0
-49 124 44 0
-49 136 45 0
-49 147 46 0
-49 157 47 0
-49 166 48 0
-49 -175 50 0
-49 -176 51 0
-49 -177 52 0
-49 -178 53 0
-49 -179 54 0
-49 -180 55 0
-49 -181 56 0
-49 -182 57 0
-50 13 -2 0
-50 32 -21 0
-50 67 40 0
-50 83 41 0
-50 98 42 0
-50 112 43 0
-50 125 44 0
-50 137 45 0
-50 148 46 0
-50 158 47 0
-50 167 48 0
-50 175 49 0
-50 -183 51 0
-50 -184 52 0
-50 -185 53 0
-50 -186 54 0
-50 -187 55 0
-50 -188 56 0
-50 -189 57 0
-51 14 -2 0
-51 33 -21 0
-51 68 40 0
-51 84 41 0
-51 99 42 0
-51 113 43 0
-51 126 44 0
-51 138 45 0
-51 149 46 0
-51 159 47 0
-51 168 48 0
-51 176 49 0
-51 183 50 0
-51 -190 52 0
-51 -191 53 0
-51 -192 54 0
-51 -193 55 0
-51 -194 56 0
-51 -195 57 0
-52 15 -2 0
-52 34 -21 0
-52 69 40 0
-52 85 41 0
-52 100 42 0
-52 114 43 0
-52 127 44 0
-52 139 45 0
-52 150 46 0
-52 160 47 0
-52 169 48 0
-52 177 49 0
-52 184 50 0
-52 190 51 0
-52 -196 53 0
-52 -197 54 0
-52 -198 55 0
-52 -199 56 0
-52 -200 57 0
-53 16 -2 0
-53 35 -21 0
-53 70 40 0
-53 86 41 0
-53 101 42 0
-53 115 43 0
-53 128 44 0
-53 140 45 0
-53 151 46 0
-53 161 47 0
-53 170 48 0
-53 178 49 0
-53 185 50 0
-53 191 51 0
-53 196 52 0
-53 -201 54 0
-53 -202 55 0
-53 -203 56 0
-53 -204 57 0
-54 17 -2 0
-54 36 -21 0
-54 71 40 0
-54 87 41 0
-54 102 42 0
-54 116 43 0
-54 129 44 0
-54 141 45 0
-54 152 46 0
-54 162 47 0
-54 171 48 0
-54 179 49 0
-54 186 50 0
-54 192 51 0
-54 197 52 0
-54 201 53 0
-54 -205 55 0
-54 -206 56 0
-54 -207 57 0
-55 18 -2 0
-55 37 -21 0
-55 72 40 0
-55 88 41 0
-55 103 42 0
-55 117 43 0
-55 130 44 0
-55 142 45 0
-55 153 46 0
-55 163 47 0
-55 172 48 0
-55 180 49 0
-55 187 50 0
-55 193 51 0
-55 198 52 0
-55 202 53 0
-55 205 54 0
-55 -208 56 0
-55 -209 57 0
-56 19 -2 0
-56 38 -21 0
-56 73 40 0
-56 89 41 0
-56 104 42 0
-56 118 43 0
-56 131 44 0
-56 143 45 0
-56 154 46 0
-56 164 47 0
-56 173 48 0
-56 181 49 0
-56 188 50 0
-56 194 51 0
-56 199 52 0
-56 203 53 0
-56 206 54 0
-56 208 55 0
-56 -210 57 0
-57 20 -2 0
-57 39 -21 0
-57 74 40 0
-57 90 41 0
-57 105 42 0
-57 119 43 0
-57 132 44 0
-57 144 45 0
-57 155 46 0
-57 165 47 0
-57 174 48 0
-57 182 49 0
-57 189 50 0
-57 195 51 0
-57 200 52 0
-57 204 53 0
-57 207 54 0
-57 209 55 0
-57 210 56 0
3 -1 -22 0
3 -2 -40 0
3 -4 58 0
3 -5 59 0
3 -6 60 0
3 -7 61 0
3 -8 62 0
3 -9 63 0
3 -10 64 0
3 -11 65 0
3 -12 66 0
3 -13 67 0
3 -14 68 0
3 -15 69 0
3 -16 70 0
3 -17 71 0
3 -18 72 0
3 -19 73 0
3 -20 74 0
22 1 -3 0
22 -21 -40 0
22 -23 58 0
22 -24 59 0
22 -25 60 0
22 -26 61 0
22 -27 62 0
22 -28 63 0
22 -29 64 0
22 -30 65 0
22 -31 66 0
22 -32 67 0
22 -33 68 0
22 -34 69 0
22 -35 70 0
22 -36 71 0
22 -37 72 0
22 -38 73 0
22 -39 74 0
40 2 -3 0
40 21 -22 0
40 -41 58 0
40 -42 59 0
40 -43 60 0
40 -44 61 0
40 -45 62 0
40 -46 63 0
40 -47 64 0
40 -48 65 0
40 -49 66 0
40 -50 67 0
40 -51 68 0
40 -52 69 0
40 -53 70 0
40 -54 71 0
40 -55 72 0
40 -56 73 0
40 -57 74 0
-58 4 -3 0
-58 23 -22 0
-58 41 -40 0
-58 -75 59 0
-58 -76 60 0
-58 -77 61 0
-58 -78 62 0
-58 -79 63 0
-58 -80 64 0
-58 -81 65 0
-58 -82 66 0
-58 -83 67 0
-58 -84 68 0
-58 -85 69 0
-58 -86 70 0
-58 -87 71 0
-58 -88 72 0
-58 -89 73 0
-58 -90 74 0
-59 5 -3 0
-59 24 -22 0
-59 42 -40 0
-59 75 58 0
-59 -91 60 0
-59 -92 61 0
-59 -93 62 0
-59 -94 63 0
-59 -95 64 0
-59 -96 65 0
-59 -97 66 0
-59 -98 67 0
-59 -99 68 0
-59 -100 69 0
-59 -101 70 0
-59 -102 71 0
-59 -103 72 0
-59 -104 73 0
-59 -105 74 0
-60 6 -3 0
-60 25 -22 0
-60 43 -40 0
-60 76 58 0
-60 91 59 0
-60 -106 61 0
-60 -107 62 0
-60 -108 63 0
-60 -109 64 0
-60 -110 65 0
-60 -111 66 0
-60 -112 67 0
-60 -113 68 0
-60 -114 69 0
-60 -115 70 0
-60 -116 71 0
-60 -117 72 0
-60 -118 73 0
-60 -119 74 0
-61 7 -3 0
-61 26 -22 0
-61 44 -40 0
-61 77 58 0
-61 92 59 0
-61 106 60 0
-61 -120 62 0
-61 -121 63 0
-61 -122 64 0
-61 -123 65 0
-61 -124 66 0
-61 -125 67 0
-61 -126 68 0
-61 -127 69 0
-61 -128 70 0
-61 -129 71 0
-61 -130 72 0
-61 -131 73 0
-61 -132 74 0
-62 8 -3 0
-62 27 -22 0
-62 45 -40 0
-62 78 58 0
-62 93 59 0
-62 107 60 0
-62 120 61 0
-62 -133 63 0
-62 -134 64 0
-62 -135 65 0
-62 -136 66 0
-62 -137 67 0
-62 -138 68 0
-62 -139 69 0
-62 -140 70 0
-62 -141 71 0
-62 -142 72 0
-62 -143 73 0
-62 -144 74 0
-63 9 -3 0
-63 28 -22 0
-63 46 -40 0
-63 79 58 0
-63 94 59 0
-63 108 60 0
-63 121 61 0
-63 133 62 0
-63 -145 64 0
-63 -146 65 0
-63 -147 66 0
-63 -148 67 0
-63 -149 68 0
-63 -150 69 0
-63 -151 70 0
-63 -152 71 0
-63 -153 72 0
-63 -154 73 0
-63 -155 74 0
-64 10 -3 0
-64 29 -22 0
-64 47 -40 0
-64 80 58 0
-64 95 59 0
-64 109 60 0
-64 122 61 0
-64 134 62 0
-64 145 63 0
-64 -156 65 0
-64 -157 66 0
-64 -158 67 0
-64 -159 68 0
-64 -160 69 0
-64 -161 70 0
-64 -162 71 0
-64 -163 72 0
-64 -164 73 0
-64 -165 74 0
-65 11 -3 0
-65 30 -22 0
-65 48 -40 0
-65 81 58 0
-65 96 59 0
-65 110 60 0
-65 123 61 0
-65 135 62 0
-65 146 63 0
-65 156 64 0
-65 -166 66 0
-65 -167 67 0
-65 -168 68 0
-65 -169 69 0
-65 -170 70 0
-65 -171 71 0
-65 -172 72 0
-65 -173 73 0
-65 -174 74 0
-66 12 -3 0
-66 31 -22 0
-66 49 -40 0
-66 82 58 0
-66 97 59 0
-66 111 60 0
-66 124 61 0
-66 136 62 0
-66 147 63 0
-66 157 64 0
-66 166 65 0
-66 -175 67 0
-66 -176 68 0
-66 -177 69 0
-66 -178 70 0
-66 -179 71 0
-66 -180 72 0
-66 -181 73 0
-66 -182 74 0
-67 13 -3 0
-67 32 -22 0
-67 50 -40 0
-67 83 58 0
-67 98 59 0
-67 112 60 0
-67 125 61 0
-67 137 62 0
-67 148 63 0
-67 158 64 0
-67 167 65 0
-67 175 66 0
-67 -183 68 0
-67 -184 69 0
-67 -185 70 0
-67 -186 71 0
-67 -187 72 0
-67 -188 73 0
-67 -189 74 0
-68 14 -3 0
-68 33 -22 0
-68 51 -40 0
-68 84 58 0
-68 99 59 0
-68 113 60 0
-68 126 61 0
-68 138 62 0
-68 149 63 0
-68 159 64 0
-68 168 65 0
-68 176 66 0
-68 183 67 0
-68 -190 69 0
-68 -191 70 0
-68 -192 71 0
-68 -193 72 0
-68 -194 73 0
-68 -195 74 0
-69 15 -3 0
-69 34 -22 0
-69 52 -40 0
-69 85 58 0
-69 100 59 0
-69 114 60 0
-69 127 61 0
-69 139 62 0
-69 150 63 0
-69 160 64 0
-69 169 65 0
-69 177 66 0
-69 184 67 0
-69 190 68 0
-69 -196 70 0
-69 -197 71 0
-69 -198 72 0
-69 -199 73 0
-69 -200 74 0
-70 16 -3 0
-70 35 -22 0
-70 53 -40 0
-70 86 58 0
-70 101 59 0
-70 115 60 0
-70 128 61 0
-70 140 62 0
-70 151 63 0
-70 161 64 0
-70 170 65 0
-70 178 66 0
-70 185 67 0
-70 191 68 0
-70 196 69 0
-70 -201 71 0
-70 -202 72 0
-70 -203 73 0
-70 -204 74 0
-71 17 -3 0
-71 36 -22 0
-71 54 -40 0
-71 87 58 0
-71 102 59 0
-71 116 60 0
-71 129 61 0
-71 141 62 0
-71 152 63 0
-71 162 64 0
-71 171 65 0
-71 179 66 0
-71 186 67 0
-71 192 68 0
-71 197 69 0
-71 201 70 0
-71 -205 72 0
-71 -206 73 0
-71 -207 74 0
-72 18 -3 0
-72 37 -22 0
-72 55 -40 0
-72 88 58 0
-72 103 59 0
-72 117 60 0
-72 130 61 0
-72 142 62 0
-72 153 63 0
-72 163 64 0
-72 172 65 0
-72 180 66 0
-72 187 67 0
-72 193 68 0
-72 198 69 0
-72 202 70 0
-72 205 71 0
-72 -208 73 0
-72 -209 74 0
-73 19 -3 0
-73 38 -22 0
-73 56 -40 0
-73 89 58 0
-73 104 59 0
-73 118 60 0
-73 131 61 0
-73 143 62 0
-73 154 63 0
-73 164 64 0
-73 173 65 0
-73 181 66 0
-73 188 67 0
-73 194 68 0
-73 199 69 0
-73 203 70 0
-73 206 71 0
-73 208 72 0
-73 -210 74 0
-74 20 -3 0
-74 39 -22 0
-74 57 -40 0
-74 90 58 0
-74 105 59 0
-74 119 60 0
-74 132 61 0
-74 144 62 0
-74 155 63 0
-74 165 64 0
-74 174 65 0
-74 182 66 0
-74 189 67 0
-74 195 68 0
-74 200 69 0
-74 204 70 0
-74 207 71 0
-74 209 72 0
-74 210 73 0
4 -1 -23 0
4 -2 -41 0
4 -3 -58 0
4 -5 75 0
4 -6 76 0
4 -7 77 0
4 -8 78 0
4 -9 79 0
4 -10 80 0
4 -11 81 0
4 -12 82 0
4 -13 83 0
4 -14 84 0
4 -15 85 0
4 -16 86 0
4 -17 87 0
4 -18 88 0
4 -19 89 0
4 -20 90 0
23 1 -4 0
23 -21 -41 0
23 -22 -58 0
23 -24 75 0
23 -25 76 0
23 -26 77 0
23 -27 78 0
23 -28 79 0
23 -29 80 0
23 -30 81 0
23 -31 82 0
23 -32 83 0
23 -33 84 0
23 -34 85 0
23 -35 86 0
23 -36 87 0
23 -37 88 0
23 -38 89 0
23 -39 90 0
41 2 -4 0
41 21 -23 0
41 -40 -58 0
41 -42 75 0
41 -43 76 0
41 -44 77 0
41 -45 78 0
41 -46 79 0
41 -47 80 0
41 -48 81 0
41 -49 82 0
41 -50 83 0
41 -51 84 0
41 -52 85 0
41 -53 86 0
41 -54 87 0
41 -55 88 0
41 -56 89 0
41 -57 90 0
58 3 -4 0
58 22 -23 0
58 40 -41 0
58 -59 75 0
58 -60 76 0
58 -61 77 0
58 -62 78 0
58 -63 79 0
58 -64 80 0
58 -65 81 0
58 -66 82 0
58 -67 83 0
58 -68 84 0
58 -69 85 0
58 -70 86 0
58 -71 87 0
58 -72 88 0
58 -73 89 0
58 -74 90 0
-75 5 -4 0
-75 24 -23 0
-75 42 -41 0
-75 59 -58 0
-75 -91 76 0
-75 -92 77 0
-75 -93 78 0
-75 -94 79 0
-75 -95 80 0
-75 -96 81 0
-75 -97 82 0
-75 -98 83 0
-75 -99 84 0
-75 -100 85 0
-75 -101 86 0
-75 -102 87 0
-75 -103 88 0
-75 -104 89 0
-75 -105 90 0
-76 6 -4 0
-76 25 -23 0
-76 43 -41 0
-76 60 -58 0
-76 91 75 0
-76 -106 77 0
-76 -107 78 0
-76 -108 79 0
-76 -109 80 0
-76 -110 81 0
-76 -111 82 0
-76 -112 83 0
-76 -113 84 0
-76 -114 85 0
-76 -115 86 0
-76 -116 87 0
-76 -117 88 0
-76 -118 89 0
-76 -119 90 0
-77 7 -4 0
-77 26 -23 0
-77 44 -41 0
-77 61 -58 0
-77 92 75 0
-77 106 76 0
-77 -120 78 0
-77 -121 79 0
-77 -122 80 0
-77 -123 81 0
-77 -124 82 0
-77 -125 83 0
-77 -126 84 0
-77 -127 85 0
-77 -128 86 0
-77 -129 87 0
-77 -130 88 0
-77 -131 89 0
-77 -132 90 0
-78 8 -4 0
-78 27 -23 0
-78 45 -41 0
-78 62 -58 0
-78 93 75 0
-78 107 76 0
-78 120 77 0
-78 -133 79 0
-78 -134 80 0
-78 -135 81 0
-78 -136 82 0
-78 -137 83 0
-78 -138 84 0
-78 -139 85 0
-78 -140 86 0
-78 -141 87 0
-78 -142 88 0
-78 -143 89 0
-78 -144 90 0
-79 9 -4 0
-79 28 -23 0
-79 46 -41 0
-79 63 -58 0
-79 94 75 0
-79 108 76 0
-79 121 77 0
-79 133 78 0
-79 -145 80 0
-79 -146 81 0
-79 -147 82 0
-79 -148 83 0
-79 -149 84 0
-79 -150 85 0
-79 -151 86 0
-79 -152 87 0
-79 -153 88 0
-79 -154 89 0
-79 -155 90 0
-80 10 -4 0
-80 29 -23 0
-80 47 -41 0
-80 64 -58 0
-80 95 75 0
-80 109 76 0
-80 122 77 0
-80 134 78 0
-80 145 79 0
-80 -156 81 0
-80 -157 82 0
-80 -158 83 0
-80 -159 84 0
-80 -160 85 0
-80 -161 86 0
-80 -162 87 0
-80 -163 88 0
-80 -164 89 0
-80 -165 90 0
-81 11 -4 0
-81 30 -23 0
-81 48 -41 0
-81 65 -58 0
-81 96 75 0
-81 110 76 0
-81 123 77 0
-81 135 78 0
-81 146 79 0
-81 156 80 0
-81 -166 82 0
-81 -167 83 0
-81 -168 84 0
-81 -169 85 0
-81 -170 86 0
-81 -171 87 0
-81 -172 88 0
-81 -173 89 0
-81 -174 90 0
-82 12 -4 0
-82 31 -23 0
-82 49 -41 0
-82 66 -58 0
-82 97 75 0
-82 111 76 0
-82 124 77 0
-82 136 78 0
-82 147 79 0
-82 157 80 0
-82 166 81 0
-82 -175 83 0
-82 -176 84 0
-82 -177 85 0
-82 -178 86 0
-82 -179 87 0
-82 -180 88 0
-82 -181 89 0
-82 -182 90 0
-83 13 -4 0
-83 32 -23 0
-83 50 -41 0
-83 67 -58 0
-83 98 75 0
-83 112 76 0
-83 125 77 0
-83 137 78 0
-83 148 79 0
-83 158 80 0
-83 167 81 0
-83 175 82 0
-83 -183 84 0
-83 -184 85 0
-83 -185 86 0
-83 -186 87 0
-83 -187 88 0
-83 -188 89 0
-83 -189 90 0
-84 14 -4 0
-84 33 -23 0
-84 51 -41 0
-84 68 -58 0
-84 99 75 0
-84 113 76 0
-84 126 77 0
-84 138 78 0
-84 149 79 0
-84 159 80 0
-84 168 81 0
-84 176 82 0
-84 183 83 0
-84 -190 85 0
-84 -191 86 0
-84 -192 87 0
-84 -193 88 0
-84 -194 89 0
-84 -195 90 0
-85 15 -4 0
-85 34 -23 0
-85 52 -41 0
-85 69 -58 0
-85 100 75 0
-85 114 76 0
-85 127 77 0
-85 139 78 0
-85 150 79 0
-85 160 80 0
-85 169 81 0
-85 177 82 0
-85 184 83 0
-85 190 84 0
-85 -196 86 0
-85 -197 87 0
-85 -198 88 0
-85 -199 89 0
-85 -200 90 0
-86 16 -4 0
-86 35 -23 0
-86 53 -41 0
-86 70 -58 0
-86 101 75 0
-86 115 76 0
-86 128 77 0
-86 140 78 0
-86 151 79 0
-86 161 80 0
-86 170 81 0
-86 178 82 0
-86 185 83 0
-86 191 84 0
-86 196 85 0
-86 -201 87 0
-86 -202 88 0
-86 -203 89 0
-86 -204 90 0
-87 17 -4 0
-87 36 -23 0
-87 54 -41 0
-87 71 -58 0
-87 102 75 0
-87 116 76 0
-87 129 77 0
-87 141 78 0
-87 152 79 0
-87 162 80 0
-87 171 81 0
-87 179 82 0
-87 186 83 0
-87 192 84 0
-87 197 85 0
-87 201 86 0
-87 -205 88 0
-87 -206 89 0
-87 -207 90 0
-88 18 -4 0
-88 37 -23 0
-88 55 -41 0
-88 72 -58 0
-88 103 75 0
-88 117 76 0
-88 130 77 0
-88 142 78 0
-88 153 79 0
-88 163 80 0
-88 172 81 0
-88 180 82 0
-88 187 83 0
-88 193 84 0
-88 198 85 0
-88 202 86 0
-88 205 87 0
-88 -208 89 0
-88 -209 90 0
-89 19 -4 0
-89 38 -23 0
-89 56 -41 0
-89 73 -58 0
-89 104 75 0
-89 118 76 0
-89 131 77 0
-89 143 78 0
-89 154 79 0
-89 164 80 0
-89 173 81 0
-89 181 82 0
-89 188 83 0
-89 194 84 0
-89 199 85 0
-89 203 86 0
-89 206 87 0
-89 208 88 0
-89 -210 90 0
-90 20 -4 0
-90 39 -23 0
-90 57 -41 0
-90 74 -58 0
-90 105 75 0
-90 119 76 0
-90 132 77 0
-90 144 78 0
-90 155 79 0
-90 165 80 0
-90 174 81 0
-90 182 82 0
-90 189 83 0
-90 195 84 0
-90 200 85 0
-90 204 86 0
-90 207 87 0
-90 209 88 0
-90 210 89 0
5 -1 -24 0
5 -2 -42 0
5 -3 -59 0
5 -4 -75 0
5 -6 91 0
5 -7 92 0
5 -8 93 0
5 -9 94 0
5 -10 95 0
5 -11 96 0
5 -12 97 0
5 -13 98 0
5 -14 99 0
5 -15 100 0
5 -16 101 0
5 -17 102 0
5 -18 103 0
5 -19 104 0
5 -20 105 0
24 1 -5 0
24 -21 -42 0
24 -22 -59 0
24 -23 -75 0
24 -25 91 0
24 -26 92 0
24 -27 93 0
24 -28 94 0
24 -29 95 0
24 -30 96 0
24 -31 97 0
24 -32 98 0
24 -33 99 0
24 -34 100 0
24 -35 101 0
24 -36 102 0
24 -37 103 0
24 -38 104 0
24 -39 105 0
42 2 -5 0
42 21 -24 0
42 -40 -59 0
42 -41 -75 0
42 -43 91 0
42 -44 92 0
42 -45 93 0
42 -46 94 0
42 -47 95 0
42 -48 96 0
42 -49 97 0
42 -50 98 0
42 -51 99 0
42 -52 100 0
42 -53 101 0
42 -54 102 0
42 -55 103 0
42 -56 104 0
42 -57 105 0
59 3 -5 0
59 22 -24 0
59 40 -42 0
59 -58 -75 0
59 -60 91 0
59 -61 92 0
59 -62 93 0
59 -63 94 0
59 -64 95 0
59 -65 96 0
59 -66 97 0
59 -67 98 0
59 -68 99 0
59 -69 100 0
59 -70 101 0
59 -71 102 0
59 -72 103 0
59 -73 104 0
59 -74 105 0
75 4 -5 0
75 23 -24 0
75 41 -42 0
75 58 -59 0
75 -76 91 0
75 -77 92 0
75 -78 93 0
75 -79 94 0
75 -80 95 0
75 -81 96 0
75 -82 97 0
75 -83 98 0
75 -84 99 0
75 -85 100 0
75 -86 101 0
75 -87 102 0
75 -88 103 0
75 -89 104 0
75 -90 105 0
-91 6 -5 0
-91 25 -24 0
-91 43 -42 0
-91 60 -59 0
-91 76 -75 0
-91 -106 92 0
-91 -107 93 0
-91 -108 94 0
-91 -109 95 0
-91 -110 96 0
-91 -111 97 0
-91 -112 98 0
-91 -113 99 0
-91 -114 100 0
-91 -115 101 0
-91 -116 102 0
-91 -117 103 0
-91 -118 104 0
-91 -119 105 0
-92 7 -5 0
-92 26 -24 0
-92 44 -42 0
-92 61 -59 0
-92 77 -75 0
-92 106 91 0
-92 -120 93 0
-92 -121 94 0
-92 -122 95 0
-92 -123 96 0
-92 -124 97 0
-92 -125 98 0
-92 -126 99 0
-92 -127 100 0
-92 -128 101 0
-92 -129 102 0
-92 -130 103 0
-92 -131 104 0
-92 -132 105 0
-93 8 -5 0
-93 27 -24 0
-93 45 -42 0
-93 62 -59 0
-93 78 -75 0
-93 107 91 0
-93 120 92 0
-93 -133 94 0
-93 -134 95 0
-93 -135 96 0
-93 -136 97 0
-93 -137 98 0
-93 -138 99 0
-93 -139 100 0
-93 -140 101 0
-93 -141 102 0
-93 -142 103 0
-93 -143 104 0
-93 -144 105 0
-94 9 -5 0
-94 28 -24 0
-94 46 -42 0
-94 63 -59 0
-94 79 -75 0
-94 108 91 0
-94 121 92 0
-94 133 93 0
-94 -145 95 0
-94 -146 96 0
-94 -147 97 0
-94 -148 98 0
-94 -149 99 0
-94 -150 100 0
-94 -151 101 0
-94 -152 102 0
-94 -153 103 0
-94 -154 104 0
-94 -155 105 0
-95 10 -5 0
-95 29 -24 0
-95 47 -42 0
-95 64 -59 0
-95 80 -75 0
-95 109 91 0
-95 122 92 0
-95 134 93 0
-95 145 94 0
-95 -156 96 0
-95 -157 97 0
-95 -158 98 0
-95 -159 99 0
-95 -160 100 0
-95 -161 101 0
-95 -162 102 0
-95 -163 103 0
-95 -164 104 0
-95 -165 105 0
-96 11 -5 0
-96 30 -24 0
-96 48 -42 0
-96 65 -59 0
-96 81 -75 0
-96 110 91 0
-96 123 92 0
-96 135 93 0
-96 146 94 0
-96 156 95 0
-96 -166 97 0
-96 -167 98 0
-96 -168 99 0
-96 -169 100 0
-96 -170 101 0
-96 -171 102 0
-96 -172 103 0
-96 -173 104 0
-96 -174 105 0
-97 12 -5 0
-97 31 -24 0
-97 49 -42 0
-97 66 -59 0
-97 82 -75 0
-97 111 91 0
-97 124 92 0
-97 136 93 0
-97 147 94 0
-97 157 95 0
-97 166 96 0
-97 -175 98 0
-97 -176 99 0
-97 -177 100 0
-97 -178 101 0
-97 -179 102 0
-97 -180 103 0
-97 -181 104 0
-97 -182 105 0
-98 13 -5 0
-98 32 -24 0
-98 50 -42 0
-98 67 -59 0
-98 83 -75 0
-98 112 91 0
-98 125 92 0
-98 137 93 0
-98 148 94 0
-98 158 95 0
-98 167 96 0
-98 175 97 0
-98 -183 99 0
-98 -184 100 0
-98 -185 101 0
-98 -186 102 0
-98 -187 103 0
-98 -188 104 0
-98 -189 105 0
-99 14 -5 0
-99 33 -24 0
-99 51 -42 0
-99 68 -59 0
-99 84 -75 0
-99 113 91 0
-99 126 92 0
-99 138 93 0
-99 149 94 0
-99 159 95 0
-99 168 96 0
-99 176 97 0
-99 183 98 0
-99 -190 100 0
-99 -191 101 0
-99 -192 102 0
-99 -193 103 0
-99 -194 104 0
-99 -195 105 0
-100 15 -5 0
-100 34 -24 0
-100 52 -42 0
-100 69 -59 0
-100 85 -75 0
-100 114 91 0
-100 127 92 0
-100 139 93 0
-100 150 94 0
-100 160 95 0
-100 169 96 0
-100 177 97 0
-100 184 98 0
-100 190 99 0
-100 -196 101 0
-100 -197 102 0
-100 -198 103 0
-100 -199 104 0
-100 -200 105 0
-101 16 -5 0
-101 35 -24 0
-101 53 -42 0
-101 70 -59 0
-101 86 -75 0
-101 115 91 0
-101 128 92 0
-101 140 93 0
-101 151 94 0
-101 161 95 0
-101 170 96 0
-101 178 97 0
-101 185 98 0
-101 191 99 0
-101 196 100 0
-101 -201 102 0
-101 -202 103 0
-101 -203 104 0
-101 -204 105 0
-102 17 -5 0
-102 36 -24 0
-102 54 -42 0
-102 71 -59 0
-102 87 -75 0
-102 116 91 0
-102 129 92 0
-102 141 93 0
-102 152 94 0
-102 162 95 0
-102 171 96 0
-102 179 97 0
-102 186 98 0
-102 192 99 0
-102 197 100 0
-102 201 101 0
-102 -205 103 0
-102 -206 104 0
-102 -207 105 0
-103 18 -5 0
-103 37 -24 0
-103 55 -42 0
-103 72 -59 0
-103 88 -75 0
-103 117 91 0
-103 130 92 0
-103 142 93 0
-103 153 94 0
-103 163 95 0
-103 172 96 0
-103 180 97 0
-103 187 98 0
-103 193 99 0
-103 198 100 0
-103 202 101 0
-103 205 102 0
-103 -208 104 0
-103 -209 105 0
-104 19 -5 0
-104 38 -24 0
-104 56 -42 0
-104 73 -59 0
-104 89 -75 0
-104 118 91 0
-104 131 92 0
-104 143 93 0
-104 154 94 0
-104 164 95 0
-104 173 96 0
-104 181 97 0
-104 188 98 0
-104 194 99 0
-104 199 100 0
-104 203 101 0
-104 206 102 0
-104 208 103 0
-104 -210 105 0
-105 20 -5 0
-105 39 -24 0
-105 57 -42 0
-105 74 -59 0
-105 90 -75 0
-105 119 91 0
-105 132 92 0
-105 144 93 0
-105 155 94 0
-105 165 95 0
-105 174 96 0
-105 182 97 0
-105 189 98 0
-105 195 99 0
-105 200 100 0
-105 204 101 0
-105 207 102 0
-105 209 103 0
-105 210 104 0
6 -1 -25 0
6 -2 -43 0
6 -3 -60 0
6 -4 -76 0
6 -5 -91 0
6 -7 106 0
6 -8 107 0
6 -9 108 0
6 -10 109 0
6 -11 110 0
6 -12 111 0
6 -13 112 0
6 -14 113 0
6 -15 114 0
6 -16 115 0
6 -17 116 0
6 -18 117 0
6 -19 118 0
6 -20 119 0
25 1 -6 0
25 -21 -43 0
25 -22 -60 0
25 -23 -76 0
25 -24 -91 0
25 -26 106 0
25 -27 107 0
25 -28 108 0
25 -29 109 0
25 -30 110 0
25 -31 111 0
25 -32 112 0
25 -33 113 0
25 -34 114 0
25 -35 115 0
25 -36 116 0
25 -37 117 0
25 -38 118 0
25 -39 119 0
43 2 -6 0
43 21 -25 0
43 -40 -60 0
43 -41 -76 0
43 -42 -91 0
43 -44 106 0
43 -45 107 0
43 -46 108 0
43 -47 109 0
43 -48 110 0
43 -49 111 0
43 -50 112 0
43 -51 113 0
43 -52 114 0
43 -53 115 0
43 -54 116 0
43 -55 117 0
43 -56 118 0
43 -57 119 0
60 3 -6 0
60 22 -25 0
60 40 -43 0
60 -58 -76 0
60 -59 -91 0
60 -61 106 0
60 -62 107 0
60 -63 108 0
60 -64 109 0
60 -65 110 0
60 -66 111 0
60 -67 112 0
60 -68 113 0
60 -69 114 0
60 -70 115 0
60 -71 116 0
60 -72 117 0
60 -73 118 0
60 -74 119 0
76 4 -6 0
76 23 -25 0
76 41 -43 0
76 58 -60 0
76 -75 -91 0
76 -77 106 0
76 -78 107 0
76 -79 108 0
76 -80 109 0
76 -81 110 0
76 -82 111 0
76 -83 112 0
76 -84 113 0
76 -85 114 0
76 -86 115 0
76 -87 116 0
76 -88 117 0
76 -89 118 0
76 -90 119 0
91 5 -6 0
91 24 -25 0
91 42 -43 0
91 59 -60 0
91 75 -76 0
91 -92 106 0
91 -93 107 0
91 -94 108 0
91 -95 109 0
91 -96 110 0
91 -97 111 0
91 -98 112 0
91 -99 113 0
91 -100 114 0
91 -101 115 0
91 -102 116 0
91 -103 117 0
91 -104 118 0
91 -105 119 0
-106 7 -6 0
-106 26 -25 0
-106 44 -43 0
-106 61 -60 0
-106 77 -76 0
-106 92 -91 0
-106 -120 107 0
-106 -121 108 0
-106 -122 109 0
-106 -123 110 0
-106 -124 111 0
-106 -125 112 0
-106 -126 113 0
-106 -127 114 0
-106 -128 115 0
-106 -129 116 0
-106 -130 117 0
-106 -131 118 0
-106 -132 119 0
-107 8 -6 0
-107 27 -25 0
-107 45 -43 0
-107 62 -60 0
-107 78 -76 0
-107 93 -91 0
-107 120 106 0
-107 -133 108 0
-107 -134 109 0
-107 -135 110 0
-107 -136 111 0
-107 -137 112 0
-107 -138 113 0
-107 -139 114 0
-107 -140 115 0
-107 -141 116 0
-107 -142 117 0
-107 -143 118 0
-107 -144 119 0
-108 9 -6 0
-108 28 -25 0
-108 46 -43 0
-108 63 -60 0
-108 79 -76 0
-108 94 -91 0
-108 121 106 0
-108 133 107 0
-108 -145 109 0
-108 -146 110 0
-108 -147 111 0
-108 -148 112 0
-108 -149 113 0
-108 -150 114 0
-108 -151 115 0
-108 -152 116 0
-108 -153 117 0
-108 -154 118 0
-108 -155 119 0
-109 10 -6 0
-109 29 -25 0
-109 47 -43 0
-109 64 -60 0
-109 80 -76 0
-109 95 -91 0
-109 122 106 0
-109 134 107 0
-109 145 108 0
-109 -156 110 0
-109 -157 111 0
-109 -158 112 0
-109 -159 113 0
-109 -160 114 0
-109 -161 115 0
-109 -162 116 0
-109 -163 117 0
-109 -164 118 0
-109 -165 119 0
-110 11 -6 0
-110 30 -25 0
-110 48 -43 0
-110 65 -60 0
-110 81 -76 0
-110 96 -91 0
-110 123 106 0
-110 135 107 0
-110 146 108 0
-110 156 109 0
-110 -166 111 0
-110 -167 112 0
-110 -168 113 0
-110 -169 114 0
-110 -170 115 0
-110 -171 116 0
-110 -172 117 0
-110 -173 118 0
-110 -174 119 0
-111 12 -6 0
-111 31 -25 0
-111 49 -43 0
-111 66 -60 0
-111 82 -76 0
-111 97 -91 0
-111 124 106 0
-111 136 107 0
-111 147 108 0
-111 157 109 0
-111 166 110 0
-111 -175 112 0
-111 -176 113 0
-111 -177 114 0
-111 -178 115 0
-111 -179 116 0
-111 -180 117 0
-111 -181 118 0
-111 -182 119 0
-112 13 -6 0
-112 32 -25 0
-112 50 -43 0
-112 67 -60 0
-112 83 -76 0
-112 98 -91 0
-112 125 106 0
-112 137 107 0
-112 148 108 0
-112 158 109 0
-112 167 110 0
-112 175 111 0
-112 -183 113 0
-112 -184 114 0
-112 -185 115 0
-112 -186 116 0
-112 -187 117 0
-112 -188 118 0
-112 -189 119 0
-113 14 -6 0
-113 33 -25 0
-113 51 -43 0
-113 68 -60 0
-113 84 -76 0
-113 99 -91 0
-113 126 106 0
-113 138 107 0
-113 149 108 0
-113 159 109 0
-113 168 110 0
-113 176 111 0
-113 183 112 0
-113 -190 114 0
-113 -191 115 0
-113 -192 116 0
-113 -193 117 0
-113 -194 118 0
-113 -195 119 0
-114 15 -6 0
-114 34 -25 0
-114 52 -43 0
-114 69 -60 0
-114 85 -76 0
-114 100 -91 0
-114 127 106 0
-114 139 107 0
-114 150 108 0
-114 160 109 0
-114 169 110 0
-114 177 111 0
-114 184 112 0
-114 190 113 0
-114 -196 115 0
-114 -197 116 0
-114 -198 117 0
-114 -199 118 0
-114 -200 119 0
-115 16 -6 0
-115 35 -25 0
-115 53 -43 0
-115 70 -60 0
-115 86 -76 0
-115 101 -91 0
-115 128 106 0
-115 140 107 0
-115 151 108 0
-115 161 109 0
-115 170 110 0
-115 178 111 0
-115 185 112 0
-115 191 113 0
-115 196 114 0
-115 -201 116 0
-115 -202 117 0
-115 -203 118 0
-115 -204 119 0
-116 17 -6 0
-116 36 -25 0
-116 54 -43 0
-116 71 -60 0
-116 87 -76 0
-116 102 -91 0
-116 129 106 0
-116 141 107 0
-116 152 108 0
-116 162 109 0
-116 171 110 0
-116 179 111 0
-116 186 112 0
-116 192 113 0
-116 197 114 0
-116 201 115 0
-116 -205 117 0
-116 -206 118 0
-116 -207 119 0
-117 18 -6 0
-117 37 -25 0
-117 55 -43 0
-117 72 -60 0
-117 88 -76 0
-117 103 -91 0
-117 130 106 0
-117 142 107 0
-117 153 108 0
-117 163 109 0
-117 172 110 0
-117 180 111 0
-117 187 112 0
-117 193 113 0
-117 198 114 0
-117 202 115 0
-117 205 116 0
-117 -208 118 0
-117 -209 119 0
-118 19 -6 0
-118 38 -25 0
-118 56 -43 0
-118 73 -60 0
-118 89 -76 0
-118 104 -91 0
-118 131 106 0
-118 143 107 0
-118 154 108 0
-118 164 109 0
-118 173 110 0
-118 181 111 0
-118 188 112 0
-118 194 113 0
-118 199 114 0
-118 203 115 0
-118 206 116 0
-118 208 117 0
-118 -210 119 0
-119 20 -6 0
-119 39 -25 0
-119 57 -43 0
-119 74 -60 0
-119 90 -76 0
-119 105 -91 0
-119 132 106 0
-119 144 107 0
-119 155 108 0
-119 165 109 0
-119 174 110 0
-119 182 111 0
-119 189 112 0
-119 195 113 0
-119 200 114 0
-119 204 115 0
-119 207 116 0
-119 209 117 0
-119 210 118 0
7 -1 -26 0
7 -2 -44 0
7 -3 -61 0
7 -4 -77 0
7 -5 -92 0
7 -6 -106 0
7 -8 120 0
7 -9 121 0
7 -10 122 0
7 -11 123 0
7 -12 124 0
7 -13 125 0
7 -14 126 0
7 -15 127 0
7 -16 128 0
7 -17 129 0
7 -18 130 0
7 -19 131 0
7 -20 132 0
26 1 -7 0
26 -21 -44 0
26 -22 -61 0
26 -23 -77 0
26 -24 -92 0
26 -25 -106 0
26 -27 120 0
26 -28 121 0
26 -29 122 0
26 -30 123 0
26 -31 124 0
26 -32 125 0
26 -33 126 0
26 -34 127 0
26 -35 128 0
26 -36 129 0
26 -37 130 0
26 -38 131 0
26 -39 132 0
44 2 -7 0
44 21 -26 0
44 -40 -61 0
44 -41 -77 0
44 -42 -92 0
44 -43 -106 0
44 -45 120 0
44 -46 121 0
44 -47 122 0
44 -48 123 0
44 -49 124 0
44 -50 125 0
44 -51 126 0
44 -52 127 0
44 -53 128 0
44 -54 129 0
44 -55 130 0
44 -56 131 0
44 -57 132 0
61 3 -7 0
61 22 -26 0
61 40 -44 0
61 -58 -77 0
61 -59 -92 0
61 -60 -106 0
61 -62 120 0
61 -63 121 0
61 -64 122 0
61 -65 123 0
61 -66 124 0
61 -67 125 0
61 -68 126 0
61 -69 127 0
61 -70 128 0
61 -71 129 0
61 -72 130 0
61 -73 131 0
61 -74 132 0
77 4 -7 0
77 23 -26 0
77 41 -44 0
77 58 -61 0
77 -75 -92 0
77 -76 -106 0
77 -78 120 0
77 -79 121 0
77 -80 122 0
77 -81 123 0
77 -82 124 0
77 -83 125 0
77 -84 126 0
77 -85 127 0
77 -86 128 0
77 -87 129 0
77 -88 130 0
77 -89 131 0
77 -90 132 0
92 5 -7 0
92 24 -26 0
92 42 -44 0
92 59 -61 0
92 75 -77 0
92 -91 -106 0
92 -93 120 0
92 -94 121 0
92 -95 122 0
92 -96 123 0
92 -97 124 0
92 -98 125 0
92 -99 126 0
92 -100 127 0
92 -101 128 0
92 -102 129 0
92 -103 130 0
92 -104 131 0
92 -105 132 0
106 6 -7 0
106 25 -26 0
106 43 -44 0
106 60 -61 0
106 76 -77 0
106 91 -92 0
106 -107 120 0
106 -108 121 0
106 -109 122 0
106 -110 123 0
106 -111 124 0
106 -112 125 0
106 -113 126 0
106 -114 127 0
106 -115 128 0
106 -116 129 0
106 -117 130 0
106 -118 131 0
106 -119 132 0
-120 8 -7 0
-120 27 -26 0
-120 45 -44 0
-120 62 -61 0
-120 78 -77 0
-120 93 -92 0
-120 107 -106 0
-120 -133 121 0
-120 -134 122 0
-120 -135 123 0
-120 -136 124 0
-120 -137 125 0
-120 -138 126 0
-120 -139 127 0
-120 -140 128 0
-120 -141 129 0
-120 -142 130 0
-120 -143 131 0
-120 -144 132 0
-121 9 -7 0
-121 28 -26 0
-121 46 -44 0
-121 63 -61 0
-121 79 -77 0
-121 94 -92 0
-121 108 -106 0
-121 133 120 0
-121 -145 122 0
-121 -146 123 0
-121 -147 124 0
-121 -148 125 0
-121 -149 126 0
-121 -150 127 0
-121 -151 128 0
-121 -152 129 0
-121 -153 130 0
-121 -154 131 0
-121 -155 132 0
-122 10 -7 0
-122 29 -26 0
-122 47 -44 0
-122 64 -61 0
-122 80 -77 0
-122 95 -92 0
-122 109 -106 0
-122 134 120 0
-122 145 121 0
-122 -156 123 0
-122 -157 124 0
-122 -158 125 0
-122 -159 126 0
-122 -160 127 0
-122 -161 128 0
-122 -162 129 0
-122 -163 130 0
-122 -164 131 0
-122 -165 132 0
-123 11 -7 0
-123 30 -26 0
-123 48 -44 0
-123 65 -61 0
-123 81 -77 0
-123 96 -92 0
-123 110 -106 0
-123 135 120 0
-123 146 121 0
-123 156 122 0
-123 -166 124 0
-123 -167 125 0
-123 -168 126 0
-123 -169 127 0
-123 -170 128 0
-123 -171 129 0
-123 -172 130 0
-123 -173 131 0
-123 -174 132 0
-124 12 -7 0
-124 31 -26 0
-124 49 -44 0
-124 66 -61 0
-124 82 -77 0
-124 97 -92 0
-124 111 -106 0
-124 136 120 0
-124 147 121 0
-124 157 122 0
-124 166 123 0
-124 -175 125 0
-124 -176 126 0
-124 -177 127 0
-124 -178 128 0
-124 -179 129 0
-124 -180 130 0
-124 -181 131 0
-124 -182 132 0
-125 13 -7 0
-125 32 -26 0
-125 50 -44 0
-125 67 -61 0
-125 83 -77 0
-125 98 -92 0
-125 112 -106 0
-125 137 120 0
-125 148 121 0
-125 158 122 0
-125 167 123 0
-125 175 124 0
-125 -183 126 0
-125 -184 127 0
-125 -185 128 0
-125 -186 129 0
-125 -187 130 0
-125 -188 131 0
-125 -189 132 0
-126 14 -7 0
-126 33 -26 0
-126 51 -44 0
-126 68 -61 0
-126 84 -77 0
-126 99 -92 0
-126 113 -106 0
-126 138 120 0
-126 149 121 0
-126 159 122 0
-126 168 123 0
-126 176 124 0
-126 183 125 0
-126 -190 127 0
-126 -191 128 0
-126 -192 129 0
-126 -193 130 0
-126 -194 131 0
-126 -195 132 0
-127 15 -7 0
-127 34 -26 0
-127 52 -44 0
-127 69 -61 0
-127 85 -77 0
-127 100 -92 0
-127 114 -106 0
-127 139 120 0
-127 150 121 0
-127 160 122 0
-127 169 123 0
-127 177 124 0
-127 184 125 0
-127 190 126 0
-127 -196 128 0
-127 -197 129 0
-127 -198 130 0
-127 -199 131 0
-127 -200 132 0
-128 16 -7 0
-128 35 -26 0
-128 53 -44 0
-128 70 -61 0
-128 86 -77 0
-128 101 -92 0
-128 115 -106 0
-128 140 120 0
-128 151 121 0
-128 161 122 0
-128 170 123 0
-128 178 124 0
-128 185 125 0
-128 191 126 0
-128 196 127 0
-128 -201 129 0
-128 -202 130 0
-128 -203 131 0
-128 -204 132 0
-129 17 -7 0
-129 36 -26 0
-129 54 -44 0
-129 71 -61 0
-129 87 -77 0
-129 102 -92 0
-129 116 -106 0
-129 141 120 0
-129 152 121 0
-129 162 122 0
-129 171 123 0
-129 179 124 0
-129 186 125 0
-129 192 126 0
-129 197 127 0
-129 201 128 0
-129 -205 130 0
-129 -206 131 0
-129 -207 132 0
-130 18 -7 0
-130 37 -26 0
-130 55 -44 0
-130 72 -61 0
-130 88 -77 0
-130 103 -92 0
-130 117 -106 0
-130 142 120 0
-130 153 121 0
-130 163 122 0
-130 172 123 0
-130 180 124 0
-130 187 125 0
-130 193 126 0
-130 198 127 0
-130 202 128 0
-130 205 129 0
-130 -208 131 0
-130 -209 132 0
-131 19 -7 0
-131 38 -26 0
-131 56 -44 0
-131 73 -61 0
-131 89 -77 0
-131 104 -92 0
-131 118 -106 0
-131 143 120 0
-131 154 121 0
-131 164 122 0
-131 173 123 0
-131 181 124 0
-131 188 125 0
-131 194 126 0
-131 199 127 0
-131 203 128 0
-131 206 129 0
-131 208 130 0
-131 -210 132 0
-132 20 -7 0
-132 39 -26 0
-132 57 -44 0
-132 74 -61 0
-132 90 -77 0
-132 105 -92 0
-132 119 -106 0
-132 144 120 0
-132 155 121 0
-132 165 122 0
-132 174 123 0
-132 182 124 0
-132 189 125 0
-132 195 126 0
-132 200 127 0
-132 204 128 0
-132 207 129 0
-132 209 130 0
-132 210 131 0
8 -1 -27 0
8 -2 -45 0
8 -3 -62 0
8 -4 -78 0
8 -5 -93 0
8 -6 -107 0
8 -7 -120 0
8 -9 133 0
8 -10 134 0
8 -11 135 0
8 -12 136 0
8 -13 137 0
8 -14 138 0
8 -15 139 0
8 -16 140 0
8 -17 141 0
8 -18 142 0
8 -19 143 0
8 -20 144 0
27 1 -8 0
27 -21 -45 0
27 -22 -62 0
27 -23 -78 0
27 -24 -93 0
27 -25 -107 0
27 -26 -120 0
27 -28 133 0
27 -29 134 0
27 -30 135 0
27 -31 136 0
27 -32 137 0
27 -33 138 0
27 -34 139 0
27 -35 140 0
27 -36 141 0
27 -37 142 0
27 -38 143 0
27 -39 144 0
45 2 -8 0
45 21 -27 0
45 -40 -62 0
45 -41 -78 0
45 -42 -93 0
45 -43 -107 0
45 -44 -120 0
45 -46 133 0
45 -47 134 0
45 -48 135 0
45 -49 136 0
45 -50 137 0
45 -51 138 0
45 -52 139 0
45 -53 140 0
45 -54 141 0
45 -55 142 0
45 -56 143 0
45 -57 144 0
62 3 -8 0
62 22 -27 0
62 40 -45 0
62 -58 -78 0
62 -59 -93 0
62 -60 -107 0
62 -61 -120 0
62 -63 133 0
62 -64 134 0
62 -65 135 0
62 -66 136 0
62 -67 137 0
62 -68 138 0
62 -69 139 0
62 -70 140 0
62 -71 141 0
62 -72 142 0
62 -73 143 0
62 -74 144 0
78 4 -8 0
78 23 -27 0
78 41 -45 0
78 58 -62 0
78 -75 -93 0
78 -76 -107 0
78 -77 -120 0
78 -79 133 0
78 -80 134 0
78 -81 135 0
78 -82 136 0
78 -83 137 0
78 -84 138 0
78 -85 139 0
78 -86 140 0
78 -87 141 0
78 -88 142 0
78 -89 143 0
78 -90 144 0
93 5 -8 0
93 24 -27 0
93 42 -45 0
93 59 -62 0
93 75 -78 0
93 -91 -107 0
93 -92 -120 0
93 -94 133 0
93 -95 134 0
93 -96 135 0
93 -97 136 0
93 -98 137 0
93 -99 138 0
93 -100 139 0
93 -101 140 0
93 -102 141 0
93 -103 142 0
93 -104 143 0
93 -105 144 0
107 6 -8 0
107 25 -27 0
107 43 -45 0
107 60 -62 0
107 76 -78 0
107 91 -93 0
107 -106 -120 0
107 -108 133 0
107 -109 134 0
107 -110 135 0
107 -111 136 0
107 -112 137 0
107 -113 138 0
107 -114 139 0
107 -115 140 0
107 -116 141 0
107 -117 142 0
107 -118 143 0
107 -119 144 0
120 7 -8 0
120 26 -27 0
120 44 -45 0
120 61 -62 0
120 77 -78 0
120 92 -93 0
120 106 -107 0
120 -121 133 0
120 -122 134 0
120 -123 135 0
120 -124 136 0
120 -125 137 0
120 -126 138 0
120 -127 139 0
120 -128 140 0
120 -129 141 0
120 -130 142 0
120 -131 143 0
120 -132 144 0
-133 9 -8 0
-133 28 -27 0
-133 46 -45 0
-133 63 -62 0
-133 79 -78 0
-133 94 -93 0
-133 108 -107 0
-133 121 -120 0
-133 -145 134 0
-133 -146 135 0
-133 -147 136 0
-133 -148 137 0
-133 -149 138 0
-133 -150 139 0
-133 -151 140 0
-133 -152 141 0
-133 -153 142 0
-133 -154 143 0
-133 -155 144 0
-134 10 -8 0
-134 29 -27 0
-134 47 -45 0
-134 64 -62 0
-134 80 -78 0
-134 95 -93 0
-134 109 -107 0
-134 122 -120 0
-134 145 133 0
-134 -156 135 0
-134 -157 136 0
-134 -158 137 0
-134 -159 138 0
-134 -160 139 0
-134 -161 140 0
-134 -162 141 0
-134 -163 142 0
-134 -164 143 0
-134 -165 144 0
-135 11 -8 0
-135 30 -27 0
-135 48 -45 0
-135 65 -62 0
-135 81 -78 0
-135 96 -93 0
-135 110 -107 0
-135 123 -120 0
-135 146 133 0
-135 156 134 0
-135 -166 136 0
-135 -167 137 0
-135 -168 138 0
-135 -169 139 0
-135 -170 140 0
-135 -171 141 0
-135 -172 142 0
-135 -173 143 0
-135 -174 144 0
-136 12 -8 0
-136 31 -27 0
-136 49 -45 0
-136 66 -62 0
-136 82 -78 0
-136 97 -93 0
-136 111 -107 0
-136 124 -120 0
-136 147 133 0
-136 157 134 0
-136 166 135 0
-136 -175 137 0
-136 -176 138 0
-136 -177 139 0
-136 -178 140 0
-136 -179 141 0
-136 -180 142 0
-136 -181 143 0
-136 -182 144 0
-137 13 -8 0
-137 32 -27 0
-137 50 -45 0
-137 67 -62 0
-137 83 -78 0
-137 98 -93 0
-137 112 -107 0
-137 125 -120 0
-137 148 133 0
-137 158 134 0
-137 167 135 0
-137 175 136 0
-137 -183 138 0
-137 -184 139 0
-137 -185 140 0
-137 -186 141 0
-137 -187 142 0
-137 -188 143 0
-137 -189 144 0
-138 14 -8 0
-138 33 -27 0
-138 51 -45 0
-138 68 -62 0
-138 84 -78 0
-138 99 -93 0
-138 113 -107 0
-138 126 -120 0
-138 149 133 0
-138 159 134 0
-138 168 135 0
-138 176 136 0
-138 183 137 0
-138 -190 139 0
-138 -191 140 0
-138 -192 141 0
-138 -193 142 0
-138 -194 143 0
-138 -195 144 0
-139 15 -8 0
-139 34 -27 0
-139 52 -45 0
-139 69 -62 0
-139 85 -78 0
-139 100 -93 0
-139 114 -107 0
-139 127 -120 0
-139 150 133 0
-139 160 134 0
-139 169 135 0
-139 177 136 0
-139 184 137 0
-139 190 138 0
-139 -196 140 0
-139 -197 141 0
-139 -198 142 0
-139 -199 143 0
-139 -200 144 0
-140 16 -8 0
-140 35 -27 0
-140 53 -45 0
-140 70 -62 0
-140 86 -78 0
-140 101 -93 0
-140 115 -107 0
-140 128 -120 0
-140 151 133 0
-140 161 134 0
-140 170 135 0
-140 178 136 0
-140 185 137 0
-140 191 138 0
-140 196 139 0
-140 -201 141 0
-140 -202 142 0
-140 -203 143 0
-140 -204 144 0
-141 17 -8 0
-141 36 -27 0
-141 54 -45 0
-141 71 -62 0
-141 87 -78 0
-141 102 -93 0
-141 116 -107 0
-141 129 -120 0
-141 152 133 0
-141 162 134 0
-141 171 135 0
-141 179 136 0
-141 186 137 0
-141 192 138 0
-141 197 139 0
-141 201 140 0
-141 -205 142 0
-141 -206 143 0
-141 -207 144 0
-142 18 -8 0
-142 37 -27 0
-142 55 -45 0
-142 72 -62 0
-142 88 -78 0
-142 103 -93 0
-142 117 -107 0
-142 130 -120 0
-142 153 133 0
-142 163 134 0
-142 172 135 0
-142 180 136 0
-142 187 137 0
-142 193 138 0
-142 198 139 0
-142 202 140 0
-142 205 141 0
-142 -208 143 0
-142 -209 144 0
-143 19 -8 0
-143 38 -27 0
-143 56 -45 0
-143 73 -62 0
-143 89 -78 0
-143 104 -93 0
-143 118 -107 0
-143 131 -120 0
-143 154 133 0
-143 164 134 0
-143 173 135 0
-143 181 136 0
-143 188 137 0
-143 194 138 0
-143 199 139 0
-143 203 140 0
-143 206 141 0
-143 208 142 0
-143 -210 144 0
-144 20 -8 0
-144 39 -27 0
-144 57 -45 0
-144 74 -62 0
-144 90 -78 0
-144 105 -93 0
-144 119 -107 0
-144 132 -120 0
-144 155 133 0
-144 165 134 0
-144 174 135 0
-144 182 136 0
-144 189 137 0
-144 195 138 0
-144 200 139 0
-144 204 140 0
-144 207 141 0
-144 209 142 0
-144 210 143 0
9 -1 -28 0
9 -2 -46 0
9 -3 -63 0
9 -4 -79 0
9 -5 -94 0
9 -6 -108 0
9 -7 -121 0
9 -8 -133 0
9 -10 145 0
9 -11 146 0
9 -12 147 0
9 -13 148 0
9 -14 149 0
9 -15 150 0
9 -16 151 0
9 -17 152 0
9 -18 153 0
9 -19 154 0
9 -20 155 0
28 1 -9 0
28 -21 -46 0
28 -22 -63 0
28 -23 -79 0
28 -24 -94 0
28 -25 -108 0
28 -26 -121 0
28 -27 -133 0
28 -29 145 0
28 -30 146 0
28 -31 147 0
28 -32 148 0
28 -33 149 0
28 -34 150 0
28 -35 151 0
28 -36 152 0
28 -37 153 0
28 -38 154 0
28 -39 155 0
46 2 -9 0
46 21 -28 0
46 -40 -63 0
46 -41 -79 0
46 -42 -94 0
46 -43 -108 0
46 -44 -121 0
46 -45 -133 0
46 -47 145 0
46 -48 146 0
46 -49 147 0
46 -50 148 0
46 -51 149 0
46 -52 150 0
46 -53 151 0
46 -54 152 0
46 -55 153 0
46 -56 154 0
46 -57 155 0
63 3 -9 0
63 22 -28 0
63 40 -46 0
63 -58 -79 0
63 -59 -94 0
63 -60 -108 0
63 -61 -121 0
63 -62 -133 0
63 -64 145 0
63 -65 146 0
63 -66 147 0
63 -67 148 0
63 -68 149 0
63 -69 150 0
63 -70 151 0
63 -71 152 0
63 -72 153 0
63 -73 154 0
63 -74 155 0
79 4 -9 0
79 23 -28 0
79 41 -46 0
79 58 -63 0
79 -75 -94 0
79 -76 -108 0
79 -77 -121 0
79 -78 -133 0
79 -80 145 0
79 -81 146 0
79 -82 147 0
79 -83 148 0
79 -84 149 0
79 -85 150 0
79 -86 151 0
79 -87 152 0
79 -88 153 0
79 -89 154 0
79 -90 155 0
94 5 -9 0
94 24 -28 0
94 42 -46 0
94 59 -63 0
94 75 -79 0
94 -91 -108 0
94 -92 -121 0
94 -93 -133 0
94 -95 145 0
94 -96 146 0
94 -97 147 0
94 -98 148 0
94 -99 149 0
94 -100 150 0
94 -101 151 0
94 -102 152 0
94 -103 153 0
94 -104 154 0
94 -105 155 0
108 6 -9 0
108 25 -28 0
108 43 -46 0
108 60 -63 0
108 76 -79 0
108 91 -94 0
108 -106 -121 0
108 -107 -133 0
108 -109 145 0
108 -110 146 0
108 -111 147 0
108 -112 148 0
108 -113 149 0
108 -114 150 0
108 -115 151 0
108 -116 152 0
108 -117 153 0
108 -118 154 0
108 -119 155 0
121 7 -9 0
121 26 -28 0
121 44 -46 0
121 61 -63 0
121 77 -79 0
121 92 -94 0
121 106 -108 0
121 -120 -133 0
121 -122 145 0
121 -123 146 0
121 -124 147 0
121 -125 148 0
121 -126 149 0
121 -127 150 0
121 -128 151 0
121 -129 152 0
121 -130 153 0
121 -131 154 0
121 -132 155 0
133 8 -9 0
133 27 -28 0
133 45 -46 0
133 62 -63 0
133 78 -79 0
133 93 -94 0
133 107 -108 0
133 120 -121 0
133 -134 145 0
133 -135 146 0
133 -136 147 0
133 -137 148 0
133 -138 149 0
133 -139 150 0
133 -140 151 0
133 -141 152 0
133 -142 153 0
133 -143 154 0
133 -144 155 0
-145 10 -9 0
-145 29 -28 0
-145 47 -46 0
-145 64 -63 0
-145 80 -79 0
-145 95 -94 0
-145 109 -108 0
-145 122 -121 0
-145 134 -133 0
-145 -156 146 0
-145 -157 147 0
-145 -158 148 0
-145 -159 149 0
-145 -160 150 0
-145 -161 151 0
-145 -162 152 0
-145 -163 153 0
-145 -164 154 0
-145 -165 155 0
-146 11 -9 0
-146 30 -28 0
-146 48 -46 0
-146 65 -63 0
-146 81 -79 0
-146 96 -94 0
-146 110 -108 0
-146 123 -121 0
-146 135 -133 0
-146 156 145 0
-146 -166 147 0
-146 -167 148 0
-146 -168 149 0
-146 -169 150 0
-146 -170 151 0
-146 -171 152 0
-146 -172 153 0
-146 -173 154 0
-146 -174 155 0
-147 12 -9 0
-147 31 -28 0
-147 49 -46 0
-147 66 -63 0
-147 82 -79 0
-147 97 -94 0
-147 111 -108 0
-147 124 -121 0
-147 136 -133 0
-147 157 145 0
-147 166 146 0
-147 -175 148 0
-147 -176 149 0
-147 -177 150 0
-147 -178 151 0
-147 -179 152 0
-147 -180 153 0
-147 -181 154 0
-147 -182 155 0
-148 13 -9 0
-148 32 -28 0
-148 50 -46 0
-148 67 -63 0
-148 83 -79 0
-148 98 -94 0
-148 112 -108 0
-148 125 -121 0
-148 137 -133 0
-148 158 145 0
-148 167 146 0
-148 175 147 0
-148 -183 149 0
-148 -184 150 0
-148 -185 151 0
-148 -186 152 0
-148 -187 153 0
-148 -188 154 0
-148 -189 155 0
-149 14 -9 0
-149 33 -28 0
-149 51 -46 0
-149 68 -63 0
-149 84 -79 0
-149 99 -94 0
-149 113 -108 0
-149 126 -121 0
-149 138 -133 0
-149 159 145 0
-149 168 146 0
-149 176 147 0
-149 183 148 0
-149 -190 150 0
-149 -191 151 0
-149 -192 152 0
-149 -193 153 0
-149 -194 154 0
-149 -195 155 0
-150 15 -9 0
-150 34 -28 0
-150 52 -46 0
-150 69 -63 0
-150 85 -79 0
-150 100 -94 0
-150 114 -108 0
-150 127 -121 0
-150 139 -133 0
-150 160 145 0
-150 169 146 0
-150 177 147 0
-150 184 148 0
-150 190 149 0
-150 -196 151 0
-150 -197 152 0
-150 -198 153 0
-150 -199 154 0
-150 -200 155 0
-151 16 -9 0
-151 35 -28 0
-151 53 -46 0
-151 70 -63 0
-151 86 -79 0
-151 101 -94 0
-151 115 -108 0
-151 128 -121 0
-151 140 -133 0
-151 161 145 0
-151 170 146 0
-151 178 147 0
-151 185 148 0
-151 191 149 0
-151 196 150 0
-151 -201 152 0
-151 -202 153 0
-151 -203 154 0
-151 -204 155 0
-152 17 -9 0
-152 36 -28 0
-152 54 -46 0
-152 71 -63 0
-152 87 -79 0
-152 102 -94 0
-152 116 -108 0
-152 129 -121 0
-152 141 -133 0
-152 162 145 0
-152 171 146 0
-152 179 147 0
-152 186 148 0
-152 192 149 0
-152 197 150 0
-152 201 151 0
-152 -205 153 0
-152 -206 154 0
-152 -207 155 0
-153 18 -9 0
-153 37 -28 0
-153 55 -46 0
-153 72 -63 0
-153 88 -79 0
-153 103 -94 0
-153 117 -108 0
-153 130 -121 0
-153 142 -133 0
-153 163 145 0
-153 172 146 0
-153 180 147 0
-153 187 148 0
-153 193 149 0
-153 198 150 0
-153 202 151 0
-153 205 152 0
-153 -208 154 0
-153 -209 155 0
-154 19 -9 0
-154 38 -28 0
-154 56 -46 0
-154 73 -63 0
-154 89 -79 0
-154 104 -94 0
-154 118 -108 0
-154 131 -121 0
-154 143 -133 0
-154 164 145 0
-154 173 146 0
-154 181 147 0
-154 188 148 0
-154 194 149 0
-154 199 150 0
-154 203 151 0
-154 206 152 0
-154 208 153 0
-154 -210 155 0
-155 20 -9 0
-155 39 -28 0
-155 57 -46 0
-155 74 -63 0
-155 90 -79 0
-155 105 -94 0
-155 119 -108 0
-155 132 -121 0
-155 144 -133 0
-155 165 145 0
-155 174 146 0
-155 182 147 0
-155 189 148 0
-155 195 149 0
-155 200 150 0
-155 204 151 0
-155 207 152 0
-155 209 153 0
-155 210 154 0
10 -1 -29 0
10 -2 -47 0
10 -3 -64 0
10 -4 -80 0
10 -5 -95 0
10 -6 -109 0
10 -7 -122 0
10 -8 -134 0
10 -9 -145 0
10 -11 156 0
10 -12 157 0
10 -13 158 0
10 -14 159 0
10 -15 160 0
10 -16 161 0
10 -17 162 0
10 -18 163 0
10 -19 164 0
10 -20 165 0
29 1 -10 0
29 -21 -47 0
29 -22 -64 0
29 -23 -80 0
29 -24 -95 0
29 -25 -109 0
29 -26 -122 0
29 -27 -134 0
29 -28 -145 0
29 -30 156 0
29 -31 157 0
29 -32 158 0
29 -33 159 0
29 -34 160 0
29 -35 161 0
29 -36 162 0
29 -37 163 0
29 -38 164 0
29 -39 165 0
47 2 -10 0
47 21 -29 0
47 -40 -64 0
47 -41 -80 0
47 -42 -95 0
47 -43 -109 0
47 -44 -122 0
47 -45 -134 0
47 -46 -145 0
47 -48 156 0
47 -49 157 0
47 -50 158 0
47 -51 159 0
47 -52 160 0
47 -53 161 0
47 -54 162 0
47 -55 163 0
47 -56 164 0
47 -57 165 0
64 3 -10 0
64 22 -29 0
64 40 -47 0
64 -58 -80 0
64 -59 -95 0
64 -60 -109 0
64 -61 -122 0
64 -62 -134 0
64 -63 -145 0
64 -65 156 0
64 -66 157 0
64 -67 158 0
64 -68 159 0
64 -69 160 0
64 -70 161 0
64 -71 162 0
64 -72 163 0
64 -73 164 0
64 -74 165 0
80 4 -10 0
80 23 -29 0
80 41 -47 0
80 58 -64 0
80 -75 -95 0
80 -76 -109 0
80 -77 -122 0
80 -78 -134 0
80 -79 -145 0
80 -81 156 0
80 -82 157 0
80 -83 158 0
80 -84 159 0
80 -85 160 0
80 -86 161 0
80 -87 162 0
80 -88 163 0
80 -89 164 0
80 -90 165 0
95 5 -10 0
95 24 -29 0
95 42 -47 0
95 59 -64 0
95 75 -80 0
95 -91 -109 0
95 -92 -122 0
95 -93 -134 0
95 -94 -145 0
95 -96 156 0
95 -97 157 0
95 -98 158 0
95 -99 159 0
95 -100 160 0
95 -101 161 0
95 -102 162 0
95 -103 163 0
95 -104 164 0
95 -105 165 0
109 6 -10 0
109 25 -29 0
109 43 -47 0
109 60 -64 0
109 76 -80 0
109 91 -95 0
109 -106 -122 0
109 -107 -134 0
109 -108 -145 0
109 -110 156 0
109 -111 157 0
109 -112 158 0
109 -113 159 0
109 -114 160 0
109 -115 161 0
109 -116 162 0
109 -117 163 0
109 -118 164 0
109 -119 165 0
122 7 -10 0
122 26 -29 0
122 44 -47 0
122 61 -64 0
122 77 -80 0
122 92 -95 0
122 106 -109 0
122 -120 -134 0
122 -121 -145 0
122 -123 156 0
122 -124 157 0
122 -125 158 0
122 -126 159 0
122 -127 160 0
122 -128 161 0
122 -129 162 0
122 -130 163 0
122 -131 164 0
122 -132 165 0
134 8 -10 0
134 27 -29 0
134 45 -47 0
134 62 -64 0
134 78 -80 0
134 93 -95 0
134 107 -109 0
134 120 -122 0
134 -133 -145 0
134 -135 156 0
134 -136 157 0
134 -137 158 0
134 -138 159 0
134 -139 160 0
134 -140 161 0
134 -141 162 0
134 -142 163 0
134 -143 164 0
134 -144 165 0
145 9 -10 0
145 28 -29 0
145 46 -47 0
145 63 -64 0
145 79 -80 0
145 94 -95 0
145 108 -109 0
145 121 -122 0
145 133 -134 0
145 -146 156 0
145 -147 157 0
145 -148 158 0
145 -149 159 0
145 -150 160 0
145 -151 161 0
145 -152 162 0
145 -153 163 0
145 -154 164 0
145 -155 165 0
-156 11 -10 0
-156 30 -29 0
-156 48 -47 0
-156 65 -64 0
-156 81 -80 0
-156 96 -95 0
-156 110 -109 0
-156 123 -122 0
-156 135 -134 0
-156 146 -145 0
-156 -166 157 0
-156 -167 158 0
-156 -168 159 0
-156 -169 160 0
-156 -170 161 0
-156 -171 162 0
-156 -172 163 0
-156 -173 164 0
-156 -174 165 0
-157 12 -10 0
-157 31 -29 0
-157 49 -47 0
-157 66 -64 0
-157 82 -80 0
-157 97 -95 0
-157 111 -109 0
-157 124 -122 0
-157 136 -134 0
-157 147 -145 0
-157 166 156 0
-157 -175 158 0
-157 -176 159 0
-157 -177 160 0
-157 -178 161 0
-157 -179 162 0
-157 -180 163 0
-157 -181 164 0
-157 -182 165 0
-158 13 -10 0
-158 32 -29 0
-158 50 -47 0
-158 67 -64 0
-158 83 -80 0
-158 98 -95 0
-158 112 -109 0
-158 125 -122 0
-158 137 -134 0
-158 148 -145 0
-158 167 156 0
-158 175 157 0
-158 -183 159 0
-158 -184 160 0
-158 -185 161 0
-158 -186 162 0
-158 -187 163 0
-158 -188 164 0
-158 -189 165 0
-159 14 -10 0
-159 33 -29 0
-159 51 -47 0
-159 68 -64 0
-159 84 -80 0
-159 99 -95 0
-159 113 -109 0
-159 126 -122 0
-159 138 -134 0
-159 149 -145 0
-159 168 156 0
-159 176 157 0
-159 183 158 0
-159 -190 160 0
-159 -191 161 0
-159 -192 162 0
-159 -193 163 0
-159 -194 164 0
-159 -195 165 0
-160 15 -10 0
-160 34 -29 0
-160 52 -47 0
-160 69 -64 0
-160 85 -80 0
-160 100 -95 0
-160 114 -109 0
-160 127 -122 0
-160 139 -134 0
-160 150 -145 0
-160 169 156 0
-160 177 157 0
-160 184 158 0
-160 190 159 0
-160 -196 161 0
-160 -197 162 0
-160 -198 163 0
-160 -199 164 0
-160 -200 165 0
-161 16 -10 0
-161 35 -29 0
-161 53 -47 0
-161 70 -64 0
-161 86 -80 0
-161 101 -95 0
-161 115 -109 0
-161 128 -122 0
-161 140 -134 0
-161 151 -145 0
-161 170 156 0
-161 178 157 0
-161 185 158 0
-161 191 159 0
-161 196 160 0
-161 -201 162 0
-161 -202 163 0
-161 -203 164 0
-161 -204 165 0
-162 17 -10 0
-162 36 -29 0
-162 54 -47 0
-162 71 -64 0
-162 87 -80 0
-162 102 -95 0
-162 116 -109 0
-162 129 -122 0
-162 141 -134 0
-162 152 -145 0
-162 171 156 0
-162 179 157 0
-162 186 158 0
-162 192 159 0
-162 197 160 0
-162 201 161 0
-162 -205 163 0
-162 -206 164 0
-162 -207 165 0
-163 18 -10 0
-163 37 -29 0
-163 55 -47 0
-163 72 -64 0
-163 88 -80 0
-163 103 -95 0
-163 117 -109 0
-163 130 -122 0
-163 142 -134 0
-163 153 -145 0
-163 172 156 0
-163 180 157 0
-163 187 158 0
-163 193 159 0
-163 198 160 0
-163 202 161 0
-163 205 162 0
-163 -208 164 0
-163 -209 165 0
-164 19 -10 0
-164 38 -29 0
-164 56 -47 0
-164 73 -64 0
-164 89 -80 0
-164 104 -95 0
-164 118 -109 0
-164 131 -122 0
-164 143 -134 0
-164 154 -145 0
-164 173 156 0
-164 181 157 0
-164 188 158 0
-164 194 159 0
-164 199 160 0
-164 203 161 0
-164 206 162 0
-164 208 163 0
-164 -210 165 0
-165 20 -10 0
-165 39 -29 0
-165 57 -47 0
-165 74 -64 0
-165 90 -80 0
-165 105 -95 0
-165 119 -109 0
-165 132 -122 0
-165 144 -134 0
-165 155 -145 0
-165 174 156 0
-165 182 157 0
-165 189 158 0
-165 195 159 0
-165 200 160 0
-165 204 161 0
-165 207 162 0
-165 209 163 0
-165 210 164 0
11 -1 -30 0
11 -2 -48 0
11 -3 -65 0
11 -4 -81 0
11 -5 -96 0
11 -6 -110 0
11 -7 -123 0
11 -8 -135 0
11 -9 -146 0
11 -10 -156 0
11 -12 166 0
11 -13 167 0
11 -14 168 0
11 -15 169 0
11 -16 170 0
11 -17 171 0
11 -18 172 0
11 -19 173 0
11 -20 174 0
30 1 -11 0
30 -21 -48 0
30 -22 -65 0
30 -23 -81 0
30 -24 -96 0
30 -25 -110 0
30 -26 -123 0
30 -27 -135 0
30 -28 -146 0
30 -29 -156 0
30 -31 166 0
30 -32 167 0
30 -33 168 0
30 -34 169 0
30 -35 170 0
30 -36 171 0
30 -37 172 0
30 -38 173 0
30 -39 174 0
48 2 -11 0
48 21 -30 0
48 -40 -65 0
48 -41 -81 0
48 -42 -96 0
48 -43 -110 0
48 -44 -123 0
48 -45 -135 0
48 -46 -146 0
48 -47 -156 0
48 -49 166 0
48 -50 167 0
48 -51 168 0
48 -52 169 0
48 -53 170 0
48 -54 171 0
48 -55 172 0
48 -56 173 0
48 -57 174 0
65 3 -11 0
65 22 -30 0
65 40 -48 0
65 -58 -81 0
65 -59 -96 0
65 -60 -110 0
65 -61 -123 0
65 -62 -135 0
65 -63 -146 0
65 -64 -156 0
65 -66 166 0
65 -67 167 0
65 -68 168 0
65 -69 169 0
65 -70 170 0
65 -71 171 0
65 -72 172 0
65 -73 173 0
65 -74 174 0
81 4 -11 0
81 23 -30 0
81 41 -48 0
81 58 -65 0
81 -75 -96 0
81 -76 -110 0
81 -77 -123 0
81 -78 -135 0
81 -79 -146 0
81 -80 -156 0
81 -82 166 0
81 -83 167 0
81 -84 168 0
81 -85 169 0
81 -86 170 0
81 -87 171 0
81 -88 172 0
81 -89 173 0
81 -90 174 0
96 5 -11 0
96 24 -30 0
96 42 -48 0
96 59 -65 0
96 75 -81 0
96 -91 -110 0
96 -92 -123 0
96 -93 -135 0
96 -94 -146 0
96 -95 -156 0
96 -97 166 0
96 -98 167 0
96 -99 168 0
96 -100 169 0
96 -101 170 0
96 -102 171 0
96 -103 172 0
96 -104 173 0
96 -105 174 0
110 6 -11 0
110 25 -30 0
110 43 -48 0
110 60 -65 0
110 76 -81 0
110 91 -96 0
110 -106 -123 0
110 -107 -135 0
110 -108 -146 0
110 -109 -156 0
110 -111 166 0
110 -112 167 0
110 -113 168 0
110 -114 169 0
110 -115 170 0
110 -116 171 0
110 -117 172 0
110 -118 173 0
110 -119 174 0
123 7 -11 0
123 26 -30 0
123 44 -48 0
123 61 -65 0
123 77 -81 0
123 92 -96 0
123 106 -110 0
123 -120 -135 0
123 -121 -146 0
123 -122 -156 0
123 -124 166 0
123 -125 167 0
123 -126 168 0
123 -127 169 0
123 -128 170 0
123 -129 171 0
123 -130 172 0
123 -131 173 0
123 -132 174 0
135 8 -11 0
135 27 -30 0
135 45 -48 0
135 62 -65 0
135 78 -81 0
135 93 -96 0
135 107 -110 0
135 120 -123 0
135 -133 -146 0
135 -134 -156 0
135 -136 166 0
135 -137 167 0
135 -138 168 0
135 -139 169 0
135 -140 170 0
135 -141 171 0
135 -142 172 0
135 -143 173 0
135 -144 174 0
146 9 -11 0
146 28 -30 0
146 46 -48 0
146 63 -65 0
146 79 -81 0
146 94 -96 0
146 108 -110 0
146 121 -123 0
146 133 -135 0
146 -145 -156 0
146 -147 166 0
146 -148 167 0
146 -149 168 0
146 -150 169 0
146 -151 170 0
146 -152 171 0
146 -153 172 0
146 -154 173 0
146 -155 174 0
156 10 -11 0
156 29 -30 0
156 47 -48 0
156 64 -65 0
156 80 -81 0
156 95 -96 0
156 109 -110 0
156 122 -123 0
156 134 -135 0
156 145 -146 0
156 -157 166 0
156 -158 167 0
156 -159 168 0
156 -160 169 0
156 -161 170 0
156 -162 171 0
156 -163 172 0
156 -164 173 0
156 -165 174 0
-166 12 -11 0
-166 31 -30 0
-166 49 -48 0
-166 66 -65 0
-166 82 -81 0
-166 97 -96 0
-166 111 -110 0
-166 124 -123 0
-166 136 -135 0
-166 147 -146 0
-166 157 -156 0
-166 -175 167 0
-166 -176 168 0
-166 -177 169 0
-166 -178 170 0
-166 -179 171 0
-166 -180 172 0
-166 -181 173 0
-166 -182 174 0
-167 13 -11 0
-167 32 -30 0
-167 50 -48 0
-167 67 -65 0
-167 83 -81 0
-167 98 -96 0
-167 112 -110 0
-167 125 -123 0
-167 137 -135 0
-167 148 -146 0
-167 158 -156 0
-167 175 166 0
-167 -183 168 0
-167 -184 169 0
-167 -185 170 0
-167 -186 171 0
-167 -187 172 0
-167 -188 173 0
-167 -189 174 0
-168 14 -11 0
-168 33 -30 0
-168 51 -48 0
-168 68 -65 0
-168 84 -81 0
-168 99 -96 0
-168 113 -110 0
-168 126 -123 0
-168 138 -135 0
-168 149 -146 0
-168 159 -156 0
-168 176 166 0
-168 183 167 0
-168 -190 169 0
-168 -191 170 0
-168 -192 171 0
-168 -193 172 0
-168 -194 173 0
-168 -195 174 0
-169 15 -11 0
-169 34 -30 0
-169 52 -48 0
-169 69 -65 0
-169 85 -81 0
-169 100 -96 0
-169 114 -110 0
-169 127 -123 0
-169 139 -135 0
-169 150 -146 0
-169 160 -156 0
-169 177 166 0
-169 184 167 0
-169 190 168 0
-169 -196 170 0
-169 -197 171 0
-169 -198 172 0
-169 -199 173 0
-169 -200 174 0
-170 16 -11 0
-170 35 -30 0
-170 53 -48 0
-170 70 -65 0
-170 86 -81 0
-170 101 -96 0
-170 115 -110 0
-170 128 -123 0
-170 140 -135 0
-170 151 -146 0
-170 161 -156 0
-170 178 166 0
-170 185 167 0
-170 191 168 0
-170 196 169 0
-170 -201 171 0
-170 -202 172 0
-170 -203 173 0
-170 -204 174 0
-171 17 -11 0
-171 36 -30 0
-171 54 -48 0
-171 71 -65 0
-171 87 -81 0
-171 102 -96 0
-171 116 -110 0
-171 129 -123 0
-171 141 -135 0
-171 152 -146 0
-171 162 -156 0
-171 179 166 0
-171 186 167 0
-171 192 168 0
-171 197 169 0
-171 201 170 0
-171 -205 172 0
-171 -206 173 0
-171 -207 174 0
-172 18 -11 0
-172 37 -30 0
-172 55 -48 0
-172 72 -65 0
-172 88 -81 0
-172 103 -96 0
-172 117 -110 0
-172 130 -123 0
-172 142 -135 0
-172 153 -146 0
-172 163 -156 0
-172 180 166 0
-172 187 167 0
-172 193 168 0
-172 198 169 0
-172 202 170 0
-172 205 171 0
-172 -208 173 0
-172 -209 174 0
-173 19 -11 0
-173 38 -30 0
-173 56 -48 0
-173 73 -65 0
-173 89 -81 0
-173 104 -96 0
-173 118 -110 0
-173 131 -123 0
-173 143 -135 0
-173 154 -146 0
-173 164 -156 0
-173 181 166 0
-173 188 167 0
-173 194 168 0
-173 199 169 0
-173 203 170 0
-173 206 171 0
-173 208 172 0
-173 -210 174 0
-174 20 -11 0
-174 39 -30 0
-174 57 -48 0
-174 74 -65 0
-174 90 -81 0
-174 105 -96 0
-174 119 -110 0
-174 132 -123 0
-174 144 -135 0
-174 155 -146 0
-174 165 -156 0
-174 182 166 0
-174 189 167 0
-174 195 168 0
-174 200 169 0
-174 204 170 0
-174 207 171 0
-174 209 172 0
-174 210 173 0
12 -1 -31 0
12 -2 -49 0
12 -3 -66 0
12 -4 -82 0
12 -5 -97 0
12 -6 -111 0
12 -7 -124 0
12 -8 -136 0
12 -9 -147 0
12 -10 -157 0
12 -11 -166 0
12 -13 175 0
12 -14 176 0
12 -15 177 0
12 -16 178 0
12 -17 179 0
12 -18 180 0
12 -19 181 0
12 -20 182 0
31 1 -12 0
31 -21 -49 0
31 -22 -66 0
31 -23 -82 0
31 -24 -97 0
31 -25 -111 0
31 -26 -124 0
31 -27 -136 0
31 -28 -147 0
31 -29 -157 0
31 -30 -166 0
31 -32 175 0
31 -33 176 0
31 -34 177 0
31 -35 178 0
31 -36 179 0
31 -37 180 0
31 -38 181 0
31 -39 182 0
49 2 -12 0
49 21 -31 0
49 -40 -66 0
49 -41 -82 0
49 -42 -97 0
49 -43 -111 0
49 -44 -124 0
49 -45 -136 0
49 -46 -147 0
49 -47 -157 0
49 -48 -166 0
49 -50 175 0
49 -51 176 0
49 -52 177 0
49 -53 178 0
49 -54 179 0
49 -55 180 0
49 -56 181 0
49 -57 182 0
66 3 -12 0
66 22 -31 0
66 40 -49 0
66 -58 -82 0
66 -59 -97 0
66 -60 -111 0
66 -61 -124 0
66 -62 -136 0
66 -63 -147 0
66 -64 -157 0
66 -65 -166 0
66 -67 175 0
66 -68 176 0
66 -69 177 0
66 -70 178 0
66 -71 179 0
66 -72 180 0
66 -73 181 0
66 -74 182 0
82 4 -12 0
82 23 -31 0
82 41 -49 0
82 58 -66 0
82 -75 -97 0
82 -76 -111 0
82 -77 -124 0
82 -78 -136 0
82 -79 -147 0
82 -80 -157 0
82 -81 -166 0
82 -83 175 0
82 -84 176 0
82 -85 177 0
82 -86 178 0
82 -87 179 0
82 -88 180 0
82 -89 181 0
82 -90 182 0
97 5 -12 0
97 24 -31 0
97 42 -49 0
97 59 -66 0
97 75 -82 0
97 -91 -111 0
97 -92 -124 0
97 -93 -136 0
97 -94 -147 0
97 -95 -157 0
97 -96 -166 0
97 -98 175 0
97 -99 176 0
97 -100 177 0
97 -101 178 0
97 -102 179 0
97 -103 180 0
97 -104 181 0
97 -105 182 0
111 6 -12 0
111 25 -31 0
111 43 -49 0
111 60 -66 0
111 76 -82 0
111 91 -97 0
111 -106 -124 0
111 -107 -136 0
111 -108 -147 0
111 -109 -157 0
111 -110 -166 0
111 -112 175 0
111 -113 176 0
111 -114 177 0
111 -115 178 0
111 -116 179 0
111 -117 180 0
111 -118 181 0
111 -119 182 0
124 7 -12 0
124 26 -31 0
124 44 -49 0
124 61 -66 0
124 77 -82 0
124 92 -97 0
124 106 -111 0
124 -120 -136 0
124 -121 -147 0
124 -122 -157 0
124 -123 -166 0
124 -125 175 0
124 -126 176 0
124 -127 177 0
124 -128 178 0
124 -129 179 0
124 -130 180 0
124 -131 181 0
124 -132 182 0
136 8 -12 0
136 27 -31 0
136 45 -49 0
136 62 -66 0
136 78 -82 0
136 93 -97 0
136 107 -111 0
136 120 -124 0
136 -133 -147 0
136 -134 -157 0
136 -135 -166 0
136 -137 175 0
136 -138 176 0
136 -139 177 0
136 -140 178 0
136 -141 179 0
136 -142 180 0
136 -143 181 0
136 -144 182 0
147 9 -12 0
147 28 -31 0
147 46 -49 0
147 63 -66 0
147 79 -82 0
147 94 -97 0
147 108 -111 0
147 121 -124 0
147 133 -136 0
147 -145 -157 0
147 -146 -166 0
147 -148 175 0
147 -149 176 0
147 -150 177 0
147 -151 178 0
147 -152 179 0
147 -153 180 0
147 -154 181 0
147 -155 182 0
157 10 -12 0
157 29 -31 0
157 47 -49 0
157 64 -66 0
157 80 -82 0
157 95 -97 0
157 109 -111 0
157 122 -124 0
157 134 -136 0
157 145 -147 0
157 -156 -166 0
157 -158 175 0
157 -159 176 0
157 -160 177 0
157 -161 178 0
157 -162 179 0
157 -163 180 0
157 -164 181 0
157 -165 182 0
166 11 -12 0
166 30 -31 0
166 48 -49 0
166 65 -66 0
166 81 -82 0
166 96 -97 0
166 110 -111 0
166 123 -124 0
166 135 -136 0
166 146 -147 0
166 156 -157 0
166 -167 175 0
166 -168 176 0
166 -169 177 0
166 -170 178 0
166 -171 179 0
166 -172 180 0
166 -173 181 0
166 -174 182 0
-175 13 -12 0
-175 32 -31 0
-175 50 -49 0
-175 67 -66 0
-175 83 -82 0
-175 98 -97 0
-175 112 -111 0
-175 125 -124 0
-175 137 -136 0
-175 148 -147 0
-175 158 -157 0
-175 167 -166 0
-175 -183 176 0
-175 -184 177 0
-175 -185 178 0
-175 -186 179 0
-175 -187 180 0
-175 -188 181 0
-175 -189 182 0
-176 14 -12 0
-176 33 -31 0
-176 51 -49 0
-176 68 -66 0
-176 84 -82 0
-176 99 -97 0
-176 113 -111 0
-176 126 -124 0
-176 138 -136 0
-176 149 -147 0
-176 159 -157 0
-176 168 -166 0
-176 183 175 0
-176 -190 177 0
-176 -191 178 0
-176 -192 179 0
-176 -193 180 0
-176 -194 181 0
-176 -195 182 0
-177 15 -12 0
-177 34 -31 0
-177 52 -49 0
-177 69 -66 0
-177 85 -82 0
-177 100 -97 0
-177 114 -111 0
-177 127 -124 0
-177 139 -136 0
-177 150 -147 0
-177 160 -157 0
-177 169 -166 0
-177 184 175 0
-177 190 176 0
-177 -196 178 0
-177 -197 179 0
-177 -198 180 0
-177 -199 181 0
-177 -200 182 0
-178 16 -12 0
-178 35 -31 0
-178 53 -49 0
-178 70 -66 0
-178 86 -82 0
-178 101 -97 0
-178 115 -111 0
-178 128 -124 0
-178 140 -136 0
-178 151 -147 0
-178 161 -157 0
-178 170 -166 0
-178 185 175 0
-178 191 176 0
-178 196 177 0
-178 -201 179 0
-178 -202 180 0
-178 -203 181 0
-178 -204 182 0
-179 17 -12 0
-179 36 -31 0
-179 54 -49 0
-179 71 -66 0
-179 87 -82 0
-179 102 -97 0
-179 116 -111 0
-179 129 -124 0
-179 141 -136 0
-179 152 -147 0
-179 162 -157 0
-179 171 -166 0
-179 186 175 0
-179 192 176 0
-179 197 177 0
-179 201 178 0
-179 -205 180 0
-179 -206 181 0
-179 -207 182 0
-180 18 -12 0
-180 37 -31 0
-180 55 -49 0
-180 72 -66 0
-180 88 -82 0
-180 103 -97 0
-180 117 -111 0
-180 130 -124 0
-180 142 -136 0
-180 153 -147 0
-180 163 -157 0
-180 172 -166 0
-180 187 175 0
-180 193 176 0
-180 198 177 0
-180 202 178 0
-180 205 179 0
-180 -208 181 0
-180 -209 182 0
-181 19 -12 0
-181 38 -31 0
-181 56 -49 0
-181 73 -66 0
-181 89 -82 0
-181 104 -97 0
-181 118 -111 0
-181 131 -124 0
-181 143 -136 0
-181 154 -147 0
-181 164 -157 0
-181 173 -166 0
-181 188 175 0
-181 194 176 0
-181 199 177 0
-181 203 178 0
-181 206 179 0
-181 208 180 0
-181 -210 182 0
-182 20 -12 0
-182 39 -31 0
-182 57 -49 0
-182 74 -66 0
-182 90 -82 0
-182 105 -97 0
-182 119 -111 0
-182 132 -124 0
-182 144 -136 0
-182 155 -147 0
-182 165 -157 0
-182 174 -166 0
-182 189 175 0
-182 195 176 0
-182 200 177 0
-182 204 178 0
-182 207 179 0
-182 209 180 0
-182 210 181 0
13 -1 -32 0
13 -2 -50 0
13 -3 -67 0
13 -4 -83 0
13 -5 -98 0
13 -6 -112 0
13 -7 -125 0
13 -8 -137 0
13 -9 -148 0
13 -10 -158 0
13 -11 -167 0
13 -12 -175 0
13 -14 183 0
13 -15 184 0
13 -16 185 0
13 -17 186 0
13 -18 187 0
13 -19 188 0
13 -20 189 0
32 1 -13 0
32 -21 -50 0
32 -22 -67 0
32 -23 -83 0
32 -24 -98 0
32 -25 -112 0
32 -26 -125 0
32 -27 -137 0
32 -28 -148 0
32 -29 -158 0
32 -30 -167 0
32 -31 -175 0
32 -33 183 0
32 -34 184 0
32 -35 185 0
32 -36 186 0
32 -37 187 0
32 -38 188 0
32 -39 189 0
50 2 -13 0
50 21 -32 0
50 -40 -67 0
50 -41 -83 0
50 -42 -98 0
50 -43 -112 0
50 -44 -125 0
50 -45 -137 0
50 -46 -148 0
50 -47 -158 0
50 -48 -167 0
50 -49 -175 0
50 -51 183 0
50 -52 184 0
50 -53 185 0
50 -54 186 0
50 -55 187 0
50 -56 188 0
50 -57 189 0
67 3 -13 0
67 22 -32 0
67 40 -50 0
67 -58 -83 0
67 -59 -98 0
67 -60 -112 0
67 -61 -125 0
67 -62 -137 0
67 -63 -148 0
67 -64 -158 0
67 -65 -167 0
67 -66 -175 0
67 -68 183 0
67 -69 184 0
67 -70 185 0
67 -71 186 0
67 -72 187 0
67 -73 188 0
67 -74 189 0
83 4 -13 0
83 23 -32 0
83 41 -50 0
83 58 -67 0
83 -75 -98 0
83 -76 -112 0
83 -77 -125 0
83 -78 -137 0
83 -79 -148 0
83 -80 -158 0
83 -81 -167 0
83 -82 -175 0
83 -84 183 0
83 -85 184 0
83 -86 185 0
83 -87 186 0
83 -88 187 0
83 -89 188 0
83 -90 189 0
98 5 -13 0
98 24 -32 0
98 42 -50 0
98 59 -67 0
98 75 -83 0
98 -91 -112 0
98 -92 -125 0
98 -93 -137 0
98 -94 -148 0
98 -95 -158 0
98 -96 -167 0
98 -97 -175 0
98 -99 183 0
98 -100 184 0
98 -101 185 0
98 -102 186 0
98 -103 187 0
98 -104 188 0
98 -105 189 0
112 6 -13 0
112 25 -32 0
112 43 -50 0
112 60 -67 0
112 76 -83 0
112 91 -98 0
112 -106 -125 0
112 -107 -137 0
112 -108 -148 0
112 -109 -158 0
112 -110 -167 0
112 -111 -175 0
112 -113 183 0
112 -114 184 0
112 -115 185 0
112 -116 186 0
112 -117 187 0
112 -118 188 0
112 -119 189 0
125 7 -13 0
125 26 -32 0
125 44 -50 0
125 61 -67 0
125 77 -83 0
125 92 -98 0
125 106 -112 0
125 -120 -137 0
125 -121 -148 0
125 -122 -158 0
125 -123 -167 0
125 -124 -175 0
125 -126 183 0
125 -127 184 0
125 -128 185 0
125 -129 186 0
125 -130 187 0
125 -131 188 0
125 -132 189 0
137 8 -13 0
137 27 -32 0
137 45 -50 0
137 62 -67 0
137 78 -83 0
137 93 -98 0
137 107 -112 0
137 120 -125 0
137 -133 -148 0
137 -134 -158 0
137 -135 -167 0
137 -136 -175 0
137 -138 183 0
137 -139 184 0
137 -140 185 0
137 -141 186 0
137 -142 187 0
137 -143 188 0
137 -144 189 0
148 9 -13 0
148 28 -32 0
148 46 -50 0
148 63 -67 0
148 79 -83 0
148 94 -98 0
148 108 -112 0
148 121 -125 0
148 133 -137 0
148 -145 -158 0
148 -146 -167 0
148 -147 -175 0
148 -149 183 0
148 -150 184 0
148 -151 185 0
148 -152 186 0
148 -153 187 0
148 -154 188 0
148 -155 189 0
158 10 -13 0
158 29 -32 0
158 47 -50 0
158 64 -67 0
158 80 -83 0
158 95 -98 0
158 109 -112 0
158 122 -125 0
158 134 -137 0
158 145 -148 0
158 -156 -167 0
158 -157 -175 0
158 -159 183 0
158 -160 184 0
158 -161 185 0
158 -162 186 0
158 -163 187 0
158 -164 188 0
158 -165 189 0
167 11 -13 0
167 30 -32 0
167 48 -50 0
167 65 -67 0
167 81 -83 0
167 96 -98 0
167 110 -112 0
167 123 -125 0
167 135 -137 0
167 146 -148 0
167 156 -158 0
167 -166 -175 0
167 -168 183 0
167 -169 184 0
167 -170 185 0
167 -171 186 0
167 -172 187 0
167 -173 188 0
167 -174 189 0
175 12 -13 0
175 31 -32 0
175 49 -50 0
175 66 -67 0
175 82 -83 0
175 97 -98 0
175 111 -112 0
175 124 -125 0
175 136 -137 0
175 147 -148 0
175 157 -158 0
175 166 -167 0
175 -176 183 0
175 -177 184 0
175 -178 185 0
175 -179 186 0
175 -180 187 0
175 -181 188 0
175 -182 189 0
-183 14 -13 0
-183 33 -32 0
-183 51 -50 0
-183 68 -67 0
-183 84 -83 0
-183 99 -98 0
-183 113 -112 0
-183 126 -125 0
-183 138 -137 0
-183 149 -148 0
-183 159 -158 0
-183 168 -167 0
-183 176 -175 0
-183 -190 184 0
-183 -191 185 0
-183 -192 186 0
-183 -193 187 0
-183 -194 188 0
-183 -195 189 0
-184 15 -13 0
-184 34 -32 0
-184 52 -50 0
-184 69 -67 0
-184 85 -83 0
-184 100 -98 0
-184 114 -112 0
-184 127 -125 0
-184 139 -137 0
-184 150 -148 0
-184 160 -158 0
-184 169 -167 0
-184 177 -175 0
-184 190 183 0
-184 -196 185 0
-184 -197 186 0
-184 -198 187 0
-184 -199 188 0
-184 -200 189 0
-185 16 -13 0
-185 35 -32 0
-185 53 -50 0
-185 70 -67 0
-185 86 -83 0
-185 101 -98 0
-185 115 -112 0
-185 128 -125 0
-185 140 -137 0
-185 151 -148 0
-185 161 -158 0
-185 170 -167 0
-185 178 -175 0
-185 191 183 0
-185 196 184 0
-185 -201 186 0
-185 -202 187 0
-185 -203 188 0
-185 -204 189 0
-186 17 -13 0
-186 36 -32 0
-186 54 -50 0
-186 71 -67 0
-186 87 -83 0
-186 102 -98 0
-186 116 -112 0
-186 129 -125 0
-186 141 -137 0
-186 152 -148 0
-186 162 -158 0
-186 171 -167 0
-186 179 -175 0
-186 192 183 0
-186 197 184 0
-186 201 185 0
-186 -205 187 0
-186 -206 188 0
-186 -207 189 0
-187 18 -13 0
-187 37 -32 0
-187 55 -50 0
-187 72 -67 0
-187 88 -83 0
-187 103 -98 0
-187 117 -112 0
-187 130 -125 0
-187 142 -137 0
-187 153 -148 0
-187 163 -158 0
-187 172 -167 0
-187 180 -175 0
-187 193 183 0
-187 198 184 0
-187 202 185 0
-187 205 186 0
-187 -208 188 0
-187 -209 189 0
-188 19 -13 0
-188 38 -32 0
-188 56 -50 0
-188 73 -67 0
-188 89 -83 0
-188 104 -98 0
-188 118 -112 0
-188 131 -125 0
-188 143 -137 0
-188 154 -148 0
-188 164 -158 0
-188 173 -167 0
-188 181 -175 0
-188 194 183 0
-188 199 184 0
-188 203 185 0
-188 206 186 0
-188 208 187 0
-188 -210 189 0
-189 20 -13 0
-189 39 -32 0
-189 57 -50 0
-189 74 -67 0
-189 90 -83 0
-189 105 -98 0
-189 119 -112 0
-189 132 -125 0
-189 144 -137 0
-189 155 -148 0
-189 165 -158 0
-189 174 -167 0
-189 182 -175 0
-189 195 183 0
-189 200 184 0
-189 204 185 0
-189 207 186 0
-189 209 187 0
-189 210 188 0
14 -1 -33 0
14 -2 -51 0
14 -3 -68 0
14 -4 -84 0
14 -5 -99 0
14 -6 -113 0
14 -7 -126 0
14 -8 -138 0
14 -9 -149 0
14 -10 -159 0
14 -11 -168 0
14 -12 -176 0
14 -13 -183 0
14 -15 190 0
14 -16 191 0
14 -17 192 0
14 -18 193 0
14 -19 194 0
14 -20 195 0
33 1 -14 0
33 -21 -51 0
33 -22 -68 0
33 -23 -84 0
33 -24 -99 0
33 -25 -113 0
33 -26 -126 0
33 -27 -138 0
33 -28 -149 0
33 -29 -159 0
33 -30 -168 0
33 -31 -176 0
33 -32 -183 0
33 -34 190 0
33 -35 191 0
33 -36 192 0
33 -37 193 0
33 -38 194 0
33 -39 195 0
51 2 -14 0
51 21 -33 0
51 -40 -68 0
51 -41 -84 0
51 -42 -99 0
51 -43 -113 0
51 -44 -126 0
51 -45 -138 0
51 -46 -149 0
51 -47 -159 0
51 -48 -168 0
51 -49 -176 0
51 -50 -183 0
51 -52 190 0
51 -53 191 0
51 -54 192 0
51 -55 193 0
51 -56 194 0
51 -57 195 0
68 3 -14 0
68 22 -33 0
68 40 -51 0
68 -58 -84 0
68 -59 -99 0
68 -60 -113 0
68 -61 -126 0
68 -62 -138 0
68 -63 -149 0
68 -64 -159 0
68 -65 -168 0
68 -66 -176 0
68 -67 -183 0
68 -69 190 0
68 -70 191 0
68 -71 192 0
68 -72 193 0
68 -73 194 0
68 -74 195 0
84 4 -14 0
84 23 -33 0
84 41 -51 0
84 58 -68 0
84 -75 -99 0
84 -76 -113 0
84 -77 -126 0
84 -78 -138 0
84 -79 -149 0
84 -80 -159 0
84 -81 -168 0
84 -82 -176 0
84 -83 -183 0
84 -85 190 0
84 -86 191 0
84 -87 192 0
84 -88 193 0
84 -89 194 0
84 -90 195 0
99 5 -14 0
99 24 -33 0
99 42 -51 0
99 59 -68 0
99 75 -84 0
99 -91 -113 0
99 -92 -126 0
99 -93 -138 0
99 -94 -149 0
99 -95 -159 0
99 -96 -168 0
99 -97 -176 0
99 -98 -183 0
99 -100 190 0
99 -101 191 0
99 -102 192 0
99 -103 193 0
99 -104 194 0
99 -105 195 0
113 6 -14 0
113 25 -33 0
113 43 -51 0
113 60 -68 0
113 76 -84 0
113 91 -99 0
113 -106 -126 0
113 -107 -138 0
113 -108 -149 0
113 -109 -159 0
113 -110 -168 0
113 -111 -176 0
113 -112 -183 0
113 -114 190 0
113 -115 191 0
113 -116 192 0
113 -117 193 0
113 -118 194 0
113 -119 195 0
126 7 -14 0
126 26 -33 0
126 44 -51 0
126 61 -68 0
126 77 -84 0
126 92 -99 0
126 106 -113 0
126 -120 -138 0
126 -121 -149 0
126 -122 -159 0
126 -123 -168 0
126 -124 -176 0
126 -125 -183 0
126 -127 190 0
126 -128 191 0
126 -129 192 0
126 -130 193 0
126 -131 194 0
126 -132 195 0
138 8 -14 0
138 27 -33 0
138 45 -51 0
138 62 -68 0
138 78 -84 0
138 93 -99 0
138 107 -113 0
138 120 -126 0
138 -133 -149 0
138 -134 -159 0
138 -135 -168 0
138 -136 -176 0
138 -137 -183 0
138 -139 190 0
138 -140 191 0
138 -141 192 0
138 -142 193 0
138 -143 194 0
138 -144 195 0
149 9 -14 0
149 28 -33 0
149 46 -51 0
149 63 -68 0
149 79 -84 0
149 94 -99 0
149 108 -113 0
149 121 -126 0
149 133 -138 0
149 -145 -159 0
149 -146 -168 0
149 -147 -176 0
149 -148 -183 0
149 -150 190 0
149 -151 191 0
149 -152 192 0
149 -153 193 0
149 -154 194 0
149 -155 195 0
159 10 -14 0
159 29 -33 0
159 47 -51 0
159 64 -68 0
159 80 -84 0
159 95 -99 0
159 109 -113 0
159 122 -126 0
159 134 -138 0
159 145 -149 0
159 -156 -168 0
159 -157 -176 0
159 -158 -183 0
159 -160 190 0
159 -161 191 0
159 -162 192 0
159 -163 193 0
159 -164 194 0
159 -165 195 0
168 11 -14 0
168 30 -33 0
168 48 -51 0
168 65 -68 0
168 81 -84 0
168 96 -99 0
168 110 -113 0
168 123 -126 0
168 135 -138 0
168 146 -149 0
168 156 -159 0
168 -166 -176 0
168 -167 -183 0
168 -169 190 0
168 -170 191 0
168 -171 192 0
168 -172 193 0
168 -173 194 0
168 -174 195 0
176 12 -14 0
176 31 -33 0
176 49 -51 0
176 66 -68 0
176 82 -84 0
176 97 -99 0
176 111 -113 0
176 124 -126 0
176 136 -138 0
176 147 -149 0
176 157 -159 0
176 166 -168 0
176 -175 -183 0
176 -177 190 0
176 -178 191 0
176 -179 192 0
176 -180 193 0
176 -181 194 0
176 -182 195 0
183 13 -14 0
183 32 -33 0
183 50 -51 0
183 67 -68 0
183 83 -84 0
183 98 -99 0
183 112 -113 0
183 125 -126 0
183 137 -138 0
183 148 -149 0
183 158 -159 0
183 167 -168 0
183 175 -176 0
183 -184 190 0
183 -185 191 0
183 -186 192 0
183 -187 193 0
183 -188 194 0
183 -189 195 0
-190 15 -14 0
-190 34 -33 0
-190 52 -51 0
-190 69 -68 0
-190 85 -84 0
-190 100 -99 0
-190 114 -113 0
-190 127 -126 0
-190 139 -138 0
-190 150 -149 0
-190 160 -159 0
-190 169 -168 0
-190 177 -176 0
-190 184 -183 0
-190 -196 191 0
-190 -197 192 0
-190 -198 193 0
-190 -199 194 0
-190 -200 195 0
-191 16 -14 0
-191 35 -33 0
-191 53 -51 0
-191 70 -68 0
-191 86 -84 0
-191 101 -99 0
-191 115 -113 0
-191 128 -126 0
-191 140 -138 0
-191 151 -149 0
-191 161 -159 0
-191 170 -168 0
-191 178 -176 0
-191 185 -183 0
-191 196 190 0
-191 -201 192 0
-191 -202 193 0
-191 -203 194 0
-191 -204 195 0
-192 17 -14 0
-192 36 -33 0
-192 54 -51 0
-192 71 -68 0
-192 87 -84 0
-192 102 -99 0
-192 116 -113 0
-192 129 -126 0
-192 141 -138 0
-192 152 -149 0
-192 162 -159 0
-192 171 -168 0
-192 179 -176 0
-192 186 -183 0
-192 197 190 0
-192 201 191 0
-192 -205 193 0
-192 -206 194 0
-192 -207 195 0
-193 18 -14 0
-193 37 -33 0
-193 55 -51 0
-193 72 -68 0
-193 88 -84 0
-193 103 -99 0
-193 117 -113 0
-193 130 -126 0
-193 142 -138 0
-193 153 -149 0
-193 163 -159 0
-193 172 -168 0
-193 180 -176 0
-193 187 -183 0
-193 198 190 0
-193 202 191 0
-193 205 192 0
-193 -208 194 0
-193 -209 195 0
-194 19 -14 0
-194 38 -33 0
-194 56 -51 0
-194 73 -68 0
-194 89 -84 0
-194 104 -99 0
-194 118 -113 0
-194 131 -126 0
-194 143 -138 0
-194 154 -149 0
-194 164 -159 0
-194 173 -168 0
-194 181 -176 0
-194 188 -183 0
-194 199 190 0
-194 203 191 0
-194 206 192 0
-194 208 193 0
-194 -210 195 0
-195 20 -14 0
-195 39 -33 0
-195 57 -51 0
-195 74 -68 0
-195 90 -84 0
-195 105 -99 0
-195 119 -113 0
-195 132 -126 0
-195 144 -138 0
-195 155 -149 0
-195 165 -159 0
-195 174 -168 0
-195 182 -176 0
-195 189 -183 0
-195 200 190 0
-195 204 191 0
-195 207 192 0
-195 209 193 0
-195 210 194 0
15 -1 -34 0
15 -2 -52 0
15 -3 -69 0
15 -4 -85 0
15 -5 -100 0
15 -6 -114 0
15 -7 -127 0
15 -8 -139 0
15 -9 -150 0
15 -10 -160 0
15 -11 -169 0
15 -12 -177 0
15 -13 -184 0
15 -14 -190 0
15 -16 196 0
15 -17 197 0
15 -18 198 0
15 -19 199 0
15 -20 200 0
34 1 -15 0
34 -21 -52 0
34 -22 -69 0
34 -23 -85 0
34 -24 -100 0
34 -25 -114 0
34 -26 -127 0
34 -27 -139 0
34 -28 -150 0
34 -29 -160 0
34 -30 -169 0
34 -31 -177 0
34 -32 -184 0
34 -33 -190 0
34 -35 196 0
34 -36 197 0
34 -37 198 0
34 -38 199 0
34 -39 200 0
52 2 -15 0
52 21 -34 0
52 -40 -69 0
52 -41 -85 0
52 -42 -100 0
52 -43 -114 0
52 -44 -127 0
52 -45 -139 0
52 -46 -150 0
52 -47 -160 0
52 -48 -169 0
52 -49 -177 0
52 -50 -184 0
52 -51 -190 0
52 -53 196 0
52 -54 197 0
52 -55 198 0
52 -56 199 0
52 -57 200 0
69 3 -15 0
69 22 -34 0
69 40 -52 0
69 -58 -85 0
69 -59 -100 0
69 -60 -114 0
69 -61 -127 0
69 -62 -139 0
69 -63 -150 0
69 -64 -160 0
69 -65 -169 0
69 -66 -177 0
69 -67 -184 0
69 -68 -190 0
69 -70 196 0
69 -71 197 0
69 -72 198 0
69 -73 199 0
69 -74 200 0
85 4 -15 0
85 23 -34 0
85 41 -52 0
85 58 -69 0
85 -75 -100 0
85 -76 -114 0
85 -77 -127 0
85 -78 -139 0
85 -79 -150 0
85 -80 -160 0
85 -81 -169 0
85 -82 -177 0
85 -83 -184 0
85 -84 -190 0
85 -86 196 0
85 -87 197 0
85 -88 198 0
85 -89 199 0
85 -90 200 0
100 5 -15 0
100 24 -34 0
100 42 -52 0
100 59 -69 0
100 75 -85 0
100 -91 -114 0
100 -92 -127 0
100 -93 -139 0
100 -94 -150 0
100 -95 -160 0
100 -96 -169 0
100 -97 -177 0
100 -98 -184 0
100 -99 -190 0
100 -101 196 0
100 -102 197 0
100 -103 198 0
100 -104 199 0
100 -105 200 0
114 6 -15 0
114 25 -34 0
114 43 -52 0
114 60 -69 0
114 76 -85 0
114 91 -100 0
114 -106 -127 0
114 -107 -139 0
114 -108 -150 0
114 -109 -160 0
114 -110 -169 0
114 -111 -177 0
114 -112 -184 0
114 -113 -190 0
114 -115 196 0
114 -116 197 0
114 -117 198 0
114 -118 199 0
114 -119 200 0
127 7 -15 0
127 26 -34 0
127 44 -52 0
127 61 -69 0
127 77 -85 0
127 92 -100 0
127 106 -114 0
127 -120 -139 0
127 -121 -150 0
127 -122 -160 0
127 -123 -169 0
127 -124 -177 0
127 -125 -184 0
127 -126 -190 0
127 -128 196 0
127 -129 197 0
127 -130 198 0
127 -131 199 0
127 -132 200 0
139 8 -15 0
139 27 -34 0
139 45 -52 0
139 62 -69 0
139 78 -85 0
139 93 -100 0
139 107 -114 0
139 120 -127 0
139 -133 -150 0
139 -134 -160 0
139 -135 -169 0
139 -136 -177 0
139 -137 -184 0
139 -138 -190 0
139 -140 196 0
139 -141 197 0
139 -142 198 0
139 -143 199 0
139 -144 200 0
150 9 -15 0
150 28 -34 0
150 46 -52 0
150 63 -69 0
150 79 -85 0
150 94 -100 0
150 108 -114 0
150 121 -127 0
150 133 -139 0
150 -145 -160 0
150 -146 -169 0
150 -147 -177 0
150 -148 -184 0
150 -149 -190 0
150 -151 196 0
150 -152 197 0
150 -153 198 0
150 -154 199 0
150 -155 200 0
160 10 -15 0
160 29 -34 0
160 47 -52 0
160 64 -69 0
160 80 -85 0
160 95 -100 0
160 109 -114 0
160 122 -127 0
160 134 -139 0
160 145 -150 0
160 -156 -169 0
160 -157 -177 0
160 -158 -184 0
160 -159 -190 0
160 -161 196 0
160 -162 197 0
160 -163 198 0
160 -164 199 0
160 -165 200 0
169 11 -15 0
169 30 -34 0
169 48 -52 0
169 65 -69 0
169 81 -85 0
169 96 -100 0
169 110 -114 0
169 123 -127 0
169 135 -139 0
169 146 -150 0
169 156 -160 0
169 -166 -177 0
169 -167 -184 0
169 -168 -190 0
169 -170 196 0
169 -171 197 0
169 -172 198 0
169 -173 199 0
169 -174 200 0
177 12 -15 0
177 31 -34 0
177 49 -52 0
177 66 -69 0
177 82 -85 0
177 97 -100 0
177 111 -114 0
177 124 -127 0
177 136 -139 0
177 147 -150 0
177 157 -160 0
177 166 -169 0
177 -175 -184 0
177 -176 -190 0
177 -178 196 0
177 -179 197 0
177 -180 198 0
177 -181 199 0
177 -182 200 0
184 13 -15 0
184 32 -34 0
184 50 -52 0
184 67 -69 0
184 83 -85 0
184 98 -100 0
184 112 -114 0
184 125 -127 0
184 137 -139 0
184 148 -150 0
184 158 -160 0
184 167 -169 0
184 175 -177 0
184 -183 -190 0
184 -185 196 0
184 -186 197 0
184 -187 198 0
184 -188 199 0
184 -189 200 0
190 14 -15 0
190 33 -34 0
190 51 -52 0
190 68 -69 0
190 84 -85 0
190 99 -100 0
190 113 -114 0
190 126 -127 0
190 138 -139 0
190 149 -150 0
190 159 -160 0
190 168 -169 0
190 176 -177 0
190 183 -184 0
190 -191 196 0
190 -192 197 0
190 -193 198 0
190 -194 199 0
190 -195 200 0
-196 16 -15 0
-196 35 -34 0
-196 53 -52 0
-196 70 -69 0
-196 86 -85 0
-196 101 -100 0
-196 115 -114 0
-196 128 -127 0
-196 140 -139 0
-196 151 -150 0
-196 161 -160 0
-196 170 -169 0
-196 178 -177 0
-196 185 -184 0
-196 191 -190 0
-196 -201 197 0
-196 -202 198 0
-196 -203 199 0
-196 -204 200 0
-197 17 -15 0
-197 36 -34 0
-197 54 -52 0
-197 71 -69 0
-197 87 -85 0
-197 102 -100 0
-197 116 -114 0
-197 129 -127 0
-197 141 -139 0
-197 152 -150 0
-197 162 -160 0
-197 171 -169 0
-197 179 -177 0
-197 186 -184 0
-197 192 -190 0
-197 201 196 0
-197 -205 198 0
-197 -206 199 0
-197 -207 200 0
-198 18 -15 0
-198 37 -34 0
-198 55 -52 0
-198 72 -69 0
-198 88 -85 0
-198 103 -100 0
-198 117 -114 0
-198 130 -127 0
-198 142 -139 0
-198 153 -150 0
-198 163 -160 0
-198 172 -169 0
-198 180 -177 0
-198 187 -184 0
-198 193 -190 0
-198 202 196 0
-198 205 197 0
-198 -208 199 0
-198 -209 200 0
-199 19 -15 0
-199 38 -34 0
-199 56 -52 0
-199 73 -69 0
-199 89 -85 0
-199 104 -100 0
-199 118 -114 0
-199 131 -127 0
-199 143 -139 0
-199 154 -150 0
-199 164 -160 0
-199 173 -169 0
-199 181 -177 0
-199 188 -184 0
-199 194 -190 0
-199 203 196 0
-199 206 197 0
-199 208 198 0
-199 -210 200 0
-200 20 -15 0
-200 39 -34 0
-200 57 -52 0
-200 74 -69 0
-200 90 -85 0
-200 105 -100 0
-200 119 -114 0
-200 132 -127 0
-200 144 -139 0
-200 155 -150 0
-200 165 -160 0
-200 174 -169 0
-200 182 -177 0
-200 189 -184 0
-200 195 -190 0
-200 204 196 0
-200 207 197 0
-200 209 198 0
-200 210 199 0
16 -1 -35 0
16 -2 -53 0
16 -3 -70 0
16 -4 -86 0
16 -5 -101 0
16 -6 -115 0
16 -7 -128 0
16 -8 -140 0
16 -9 -151 0
16 -10 -161 0
16 -11 -170 0
16 -12 -178 0
16 -13 -185 0
16 -14 -191 0
16 -15 -196 0
16 -17 201 0
16 -18 202 0
16 -19 203 0
16 -20 204 0
35 1 -16 0
35 -21 -53 0
35 -22 -70 0
35 -23 -86 0
35 -24 -101 0
35 -25 -115 0
35 -26 -128 0
35 -27 -140 0
35 -28 -151 0
35 -29 -161 0
35 -30 -170 0
35 -31 -178 0
35 -32 -185 0
35 -33 -191 0
35 -34 -196 0
35 -36 201 0
35 -37 202 0
35 -38 203 0
35 -39 204 0
53 2 -16 0
53 21 -35 0
53 -40 -70 0
53 -41 -86 0
53 -42 -101 0
53 -43 -115 0
53 -44 -128 0
53 -45 -140 0
53 -46 -151 0
53 -47 -161 0
53 -48 -170 0
53 -49 -178 0
53 -50 -185 0
53 -51 -191 0
53 -52 -196 0
53 -54 201 0
53 -55 202 0
53 -56 203 0
53 -57 204 0
70 3 -16 0
70 22 -35 0
70 40 -53 0
70 -58 -86 0
70 -59 -101 0
70 -60 -115 0
70 -61 -128 0
70 -62 -140 0
70 -63 -151 0
70 -64 -161 0
70 -65 -170 0
70 -66 -178 0
70 -67 -185 0
70 -68 -191 0
70 -69 -196 0
70 -71 201 0
70 -72 202 0
70 -73 203 0
70 -74 204 0
86 4 -16 0
86 23 -35 0
86 41 -53 0
86 58 -70 0
86 -75 -101 0
86 -76 -115 0
86 -77 -128 0
86 -78 -140 0
86 -79 -151 0
86 -80 -161 0
86 -81 -170 0
86 -82 -178 0
86 -83 -185 0
86 -84 -191 0
86 -85 -196 0
86 -87 201 0
86 -88 202 0
86 -89 203 0
86 -90 204 0
101 5 -16 0
101 24 -35 0
101 42 -53 0
101 59 -70 0
101 75 -86 0
101 -91 -115 0
101 -92 -128 0
101 -93 -140 0
101 -94 -151 0
101 -95 -161 0
101 -96 -170 0
101 -97 -178 0
101 -98 -185 0
101 -99 -191 0
101 -100 -196 0
101 -102 201 0
101 -103 202 0
101 -104 203 0
101 -105 204 0
115 6 -16 0
115 25 -35 0
115 43 -53 0
115 60 -70 0
115 76 -86 0
115 91 -101 0
115 -106 -128 0
115 -107 -140 0
115 -108 -151 0
115 -109 -161 0
115 -110 -170 0
115 -111 -178 0
115 -112 -185 0
115 -113 -191 0
115 -114 -196 0
115 -116 201 0
115 -117 202 0
115 -118 203 0
115 -119 204 0
128 7 -16 0
128 26 -35 0
128 44 -53 0
128 61 -70 0
128 77 -86 0
128 92 -101 0
128 106 -115 0
128 -120 -140 0
128 -121 -151 0
128 -122 -161 0
128 -123 -170 0
128 -124 -178 0
128 -125 -185 0
128 -126 -191 0
128 -127 -196 0
128 -129 201 0
128 -130 202 0
128 -131 203 0
128 -132 204 0
140 8 -16 0
140 27 -35 0
140 45 -53 0
140 62 -70 0
140 78 -86 0
140 93 -101 0
140 107 -115 0
140 120 -128 0
140 -133 -151 0
140 -134 -161 0
140 -135 -170 0
140 -136 -178 0
140 -137 -185 0
140 -138 -191 0
140 -139 -196 0
140 -141 201 0
140 -142 202 0
140 -143 203 0
140 -144 204 0
151 9 -16 0
151 28 -35 0
151 46 -53 0
151 63 -70 0
151 79 -86 0
151 94 -101 0
151 108 -115 0
151 121 -128 0
151 133 -140 0
151 -145 -161 0
151 -146 -170 0
151 -147 -178 0
151 -148 -185 0
151 -149 -191 0
151 -150 -196 0
151 -152 201 0
151 -153 202 0
151 -154 203 0
151 -155 204 0
161 10 -16 0
161 29 -35 0
161 47 -53 0
161 64 -70 0
161 80 -86 0
161 95 -101 0
161 109 -115 0
161 122 -128 0
161 134 -140 0
161 145 -151 0
161 -156 -170 0
161 -157 -178 0
161 -158 -185 0
161 -159 -191 0
161 -160 -196 0
161 -162 201 0
161 -163 202 0
161 -164 203 0
161 -165 204 0
170 11 -16 0
170 30 -35 0
170 48 -53 0
170 65 -70 0
170 81 -86 0
170 96 -101 0
170 110 -115 0
170 123 -128 0
170 135 -140 0
170 146 -151 0
170 156 -161 0
170 -166 -178 0
170 -167 -185 0
170 -168 -191 0
170 -169 -196 0
170 -171 201 0
170 -172 202 0
170 -173 203 0
170 -174 204 0
178 12 -16 0
178 31 -35 0
178 49 -53 0
178 66 -70 0
178 82 -86 0
178 97 -101 0
178 111 -115 0
178 124 -128 0
178 136 -140 0
178 147 -151 0
178 157 -161 0
178 166 -170 0
178 -175 -185 0
178 -176 -191 0
178 -177 -196 0
178 -179 201 0
178 -180 202 0
178 -181 203 0
178 -182 204 0
185 13 -16 0
185 32 -35 0
185 50 -53 0
185 67 -70 0
185 83 -86 0
185 98 -101 0
185 112 -115 0
185 125 -128 0
185 137 -140 0
185 148 -151 0
185 158 -161 0
185 167 -170 0
185 175 -178 0
185 -183 -191 0
185 -184 -196 0
185 -186 201 0
185 -187 202 0
185 -188 203 0
185 -189 204 0
191 14 -16 0
191 33 -35 0
191 51 -53 0
191 68 -70 0
191 84 -86 0
191 99 -101 0
191 113 -115 0
191 126 -128 0
191 138 -140 0
191 149 -151 0
191 159 -161 0
191 168 -170 0
191 176 -178 0
191 183 -185 0
191 -190 -196 0
191 -192 201 0
191 -193 202 0
191 -194 203 0
191 -195 204 0
196 15 -16 0
196 34 -35 0
196 52 -53 0
196 69 -70 0
196 85 -86 0
196 100 -101 0
196 114 -115 0
196 127 -128 0
196 139 -140 0
196 150 -151 0
196 160 -161 0
196 169 -170 0
196 177 -178 0
196 184 -185 0
196 190 -191 0
196 -197 201 0
196 -198 202 0
196 -199 203 0
196 -200 204 0
-201 17 -16 0
-201 36 -35 0
-201 54 -53 0
-201 71 -70 0
-201 87 -86 0
-201 102 -101 0
-201 116 -115 0
-201 129 -128 0
-201 141 -140 0
-201 152 -151 0
-201 162 -161 0
-201 171 -170 0
-201 179 -178 0
-201 186 -185 0
-201 192 -191 0
-201 197 -196 0
-201 -205 202 0
-201 -206 203 0
-201 -207 204 0
-202 18 -16 0
-202 37 -35 0
-202 55 -53 0
-202 72 -70 0
-202 88 -86 0
-202 103 -101 0
-202 117 -115 0
-202 130 -128 0
-202 142 -140 0
-202 153 -151 0
-202 163 -161 0
-202 172 -170 0
-202 180 -178 0
-202 187 -185 0
-202 193 -191 0
-202 198 -196 0
-202 205 201 0
-202 -208 203 0
-202 -209 204 0
-203 19 -16 0
-203 38 -35 0
-203 56 -53 0
-203 73 -70 0
-203 89 -86 0
-203 104 -101 0
-203 118 -115 0
-203 131 -128 0
-203 143 -140 0
-203 154 -151 0
-203 164 -161 0
-203 173 -170 0
-203 181 -178 0
-203 188 -185 0
-203 194 -191 0
-203 199 -196 0
-203 206 201 0
-203 208 202 0
-203 -210 204 0
-204 20 -16 0
-204 39 -35 0
-204 57 -53 0
-204 74 -70 0
-204 90 -86 0
-204 105 -101 0
-204 119 -115 0
-204 132 -128 0
-204 144 -140 0
-204 155 -151 0
-204 165 -161 0
-204 174 -170 0
-204 182 -178 0
-204 189 -185 0
-204 195 -191 0
-204 200 -196 0
-204 207 201 0
-204 209 202 0
-204 210 203 0
17 -1 -36 0
17 -2 -54 0
17 -3 -71 0
17 -4 -87 0
17 -5 -102 0
17 -6 -116 0
17 -7 -129 0
17 -8 -141 0
17 -9 -152 0
17 -10 -162 0
17 -11 -171 0
17 -12 -179 0
17 -13 -186 0
17 -14 -192 0
17 -15 -197 0
17 -16 -201 0
17 -18 205 0
17 -19 206 0
17 -20 207 0
36 1 -17 0
36 -21 -54 0
36 -22 -71 0
36 -23 -87 0
36 -24 -102 0
36 -25 -116 0
36 -26 -129 0
36 -27 -141 0
36 -28 -152 0
36 -29 -162 0
36 -30 -171 0
36 -31 -179 0
36 -32 -186 0
36 -33 -192 0
36 -34 -197 0
36 -35 -201 0
36 -37 205 0
36 -38 206 0
36 -39 207 0
54 2 -17 0
54 21 -36 0
54 -40 -71 0
54 -41 -87 0
54 -42 -102 0
54 -43 -116 0
54 -44 -129 0
54 -45 -141 0
54 -46 -152 0
54 -47 -162 0
54 -48 -171 0
54 -49 -179 0
54 -50 -186 0
54 -51 -192 0
54 -52 -197 0
54 -53 -201 0
54 -55 205 0
54 -56 206 0
54 -57 207 0
71 3 -17 0
71 22 -36 0
71 40 -54 0
71 -58 -87 0
71 -59 -102 0
71 -60 -116 0
71 -61 -129 0
71 -62 -141 0
71 -63 -152 0
71 -64 -162 0
71 -65 -171 0
71 -66 -179 0
71 -67 -186 0
71 -68 -192 0
71 -69 -197 0
71 -70 -201 0
71 -72 205 0
71 -73 206 0
71 -74 207 0
87 4 -17 0
87 23 -36 0
87 41 -54 0
87 58 -71 0
87 -75 -102 0
87 -76 -116 0
87 -77 -129 0
87 -78 -141 0
87 -79 -152 0
87 -80 -162 0
87 -81 -171 0
87 -82 -179 0
87 -83 -186 0
87 -84 -192 0
87 -85 -197 0
87 -86 -201 0
87 -88 205 0
87 -89 206 0
87 -90 207 0
102 5 -17 0
102 24 -36 0
102 42 -54 0
102 59 -71 0
102 75 -87 0
102 -91 -116 0
102 -92 -129 0
102 -93 -141 0
102 -94 -152 0
102 -95 -162 0
102 -96 -171 0
102 -97 -179 0
102 -98 -186 0
102 -99 -192 0
102 -100 -197 0
102 -101 -201 0
102 -103 205 0
102 -104 206 0
102 -105 207 0
116 6 -17 0
116 25 -36 0
116 43 -54 0
116 60 -71 0
116 76 -87 0
116 91 -102 0
116 -106 -129 0
116 -107 -141 0
116 -108 -152 0
116 -109 -162 0
116 -110 -171 0
116 -111 -179 0
116 -112 -186 0
116 -113 -192 0
116 -114 -197 0
116 -115 -201 0
116 -117 205 0
116 -118 206 0
116 -119 207 0
129 7 -17 0
129 26 -36 0
129 44 -54 0
129 61 -71 0
129 77 -87 0
129 92 -102 0
129 106 -116 0
129 -120 -141 0
129 -121 -152 0
129 -122 -162 0
129 -123 -171 0
129 -124 -179 0
129 -125 -186 0
129 -126 -192 0
129 -127 -197 0
129 -128 -201 0
129 -130 205 0
129 -131 206 0
129 -132 207 0
141 8 -17 0
141 27 -36 0
141 45 -54 0
141 62 -71 0
141 78 -87 0
141 93 -102 0
141 107 -116 0
141 120 -129 0
141 -133 -152 0
141 -134 -162 0
141 -135 -171 0
141 -136 -179 0
141 -137 -186 0
141 -138 -192 0
141 -139 -197 0
141 -140 -201 0
141 -142 205 0
141 -143 206 0
141 -144 207 0
152 9 -17 0
152 28 -36 0
152 46 -54 0
152 63 -71 0
152 79 -87 0
152 94 -102 0
152 108 -116 0
152 121 -129 0
152 133 -141 0
152 -145 -162 0
152 -146 -171 0
152 -147 -179 0
152 -148 -186 0
152 -149 -192 0
152 -150 -197 0
152 -151 -201 0
152 -153 205 0
152 -154 206 0
152 -155 207 0
162 10 -17 0
162 29 -36 0
162 47 -54 0
162 64 -71 0
162 80 -87 0
162 95 -102 0
162 109 -116 0
162 122 -129 0
162 134 -141 0
162 145 -152 0
162 -156 -171 0
162 -157 -179 0
162 -158 -186 0
162 -159 -192 0
162 -160 -197 0
162 -161 -201 0
162 -163 205 0
162 -164 206 0
162 -165 207 0
171 11 -17 0
171 30 -36 0
171 48 -54 0
171 65 -71 0
171 81 -87 0
171 96 -102 0
171 110 -116 0
171 123 -129 0
171 135 -141 0
171 146 -152 0
171 156 -162 0
171 -166 -179 0
171 -167 -186 0
171 -168 -192 0
171 -169 -197 0
171 -170 -201 0
171 -172 205 0
171 -173 206 0
171 -174 207 0
179 12 -17 0
179 31 -36 0
179 49 -54 0
179 66 -71 0
179 82 -87 0
179 97 -102 0
179 111 -116 0
179 124 -129 0
179 136 -141 0
179 147 -152 0
179 157 -162 0
179 166 -171 0
179 -175 -186 0
179 -176 -192 0
179 -177 -197 0
179 -178 -201 0
179 -180 205 0
179 -181 206 0
179 -182 207 0
186 13 -17 0
186 32 -36 0
186 50 -54 0
186 67 -71 0
186 83 -87 0
186 98 -102 0
186 112 -116 0
186 125 -129 0
186 137 -141 0
186 148 -152 0
186 158 -162 0
186 167 -171 0
186 175 -179 0
186 -183 -192 0
186 -184 -197 0
186 -185 -201 0
186 -187 205 0
186 -188 206 0
186 -189 207 0
192 14 -17 0
192 33 -36 0
192 51 -54 0
192 68 -71 0
192 84 -87 0
192 99 -102 0
192 113 -116 0
192 126 -129 0
192 138 -141 0
192 149 -152 0
192 159 -162 0
192 168 -171 0
192 176 -179 0
192 183 -186 0
192 -190 -197 0
192 -191 -201 0
192 -193 205 0
192 -194 206 0
192 -195 207 0
197 15 -17 0
197 34 -36 0
197 52 -54 0
197 69 -71 0
197 85 -87 0
197 100 -102 0
197 114 -116 0
197 127 -129 0
197 139 -141 0
197 150 -152 0
197 160 -162 0
197 169 -171 0
197 177 -179 0
197 184 -186 0
197 190 -192 0
197 -196 -201 0
197 -198 205 0
197 -199 206 0
197 -200 207 0
201 16 -17 0
201 35 -36 0
201 53 -54 0
201 70 -71 0
201 86 -87 0
201 101 -102 0
201 115 -116 0
201 128 -129 0
201 140 -141 0
201 151 -152 0
201 161 -162 0
201 170 -171 0
201 178 -179 0
201 185 -186 0
201 191 -192 0
201 196 -197 0
201 -202 205 0
201 -203 206 0
201 -204 207 0
-205 18 -17 0
-205 37 -36 0
-205 55 -54 0
-205 72 -71 0
-205 88 -87 0
-205 103 -102 0
-205 117 -116 0
-205 130 -129 0
-205 142 -141 0
-205 153 -152 0
-205 163 -162 0
-205 172 -171 0
-205 180 -179 0
-205 187 -186 0
-205 193 -192 0
-205 198 -197 0
-205 202 -201 0
-205 -208 206 0
-205 -209 207 0
-206 19 -17 0
-206 38 -36 0
-206 56 -54 0
-206 73 -71 0
-206 89 -87 0
-206 104 -102 0
-206 118 -116 0
-206 131 -129 0
-206 143 -141 0
-206 154 -152 0
-206 164 -162 0
-206 173 -171 0
-206 181 -179 0
-206 188 -186 0
-206 194 -192 0
-206 199 -197 0
-206 203 -201 0
-206 208 205 0
-206 -210 207 0
-207 20 -17 0
-207 39 -36 0
-207 57 -54 0
-207 74 -71 0
-207 90 -87 0
-207 105 -102 0
-207 119 -116 0
-207 132 -129 0
-207 144 -141 0
-207 155 -152 0
-207 165 -162 0
-207 174 -171 0
-207 182 -179 0
-207 189 -186 0
-207 195 -192 0
-207 200 -197 0
-207 204 -201 0
-207 209 205 0
-207 210 206 0
18 -1 -37 0
18 -2 -55 0
18 -3 -72 0
18 -4 -88 0
18 -5 -103 0
18 -6 -117 0
18 -7 -130 0
18 -8 -142 0
18 -9 -153 0
18 -10 -163 0
18 -11 -172 0
18 -12 -180 0
18 -13 -187 0
18 -14 -193 0
18 -15 -198 0
18 -16 -202 0
18 -17 -205 0
18 -19 208 0
18 -20 209 0
37 1 -18 0
37 -21 -55 0
37 -22 -72 0
37 -23 -88 0
37 -24 -103 0
37 -25 -117 0
37 -26 -130 0
37 -27 -142 0
37 -28 -153 0
37 -29 -163 0
37 -30 -172 0
37 -31 -180 0
37 -32 -187 0
37 -33 -193 0
37 -34 -198 0
37 -35 -202 0
37 -36 -205 0
37 -38 208 0
37 -39 209 0
55 2 -18 0
55 21 -37 0
55 -40 -72 0
55 -41 -88 0
55 -42 -103 0
55 -43 -117 0
55 -44 -130 0
55 -45 -142 0
55 -46 -153 0
55 -47 -163 0
55 -48 -172 0
55 -49 -180 0
55 -50 -187 0
55 -51 -193 0
55 -52 -198 0
55 -53 -202 0
55 -54 -205 0
55 -56 208 0
55 -57 209 0
72 3 -18 0
72 22 -37 0
72 40 -55 0
72 -58 -88 0
72 -59 -103 0
72 -60 -117 0
72 -61 -130 0
72 -62 -142 0
72 -63 -153 0
72 -64 -163 0
72 -65 -172 0
72 -66 -180 0
72 -67 -187 0
72 -68 -193 0
72 -69 -198 0
72 -70 -202 0
72 -71 -205 0
72 -73 208 0
72 -74 209 0
88 4 -18 0
88 23 -37 0
88 41 -55 0
88 58 -72 0
88 -75 -103 0
88 -76 -117 0
88 -77 -130 0
88 -78 -142 0
88 -79 -153 0
88 -80 -163 0
88 -81 -172 0
88 -82 -180 0
88 -83 -187 0
88 -84 -193 0
88 -85 -198 0
88 -86 -202 0
88 -87 -205 0
88 -89 208 0
88 -90 209 0
103 5 -18 0
103 24 -37 0
103 42 -55 0
103 59 -72 0
103 75 -88 0
103 -91 -117 0
103 -92 -130 0
103 -93 -142 0
103 -94 -153 0
103 -95 -163 0
103 -96 -172 0
103 -97 -180 0
103 -98 -187 0
103 -99 -193 0
103 -100 -198 0
103 -101 -202 0
103 -102 -205 0
103 -104 208 0
103 -105 209 0
117 6 -18 0
117 25 -37 0
117 43 -55 0
117 60 -72 0
117 76 -88 0
117 91 -103 0
117 -106 -130 0
117 -107 -142 0
117 -108 -153 0
117 -109 -163 0
117 -110 -172 0
117 -111 -180 0
117 -112 -187 0
117 -113 -193 0
117 -114 -198 0
117 -115 -202 0
117 -116 -205 0
117 -118 208 0
117 -119 209 0
130 7 -18 0
130 26 -37 0
130 44 -55 0
130 61 -72 0
130 77 -88 0
130 92 -103 0
130 106 -117 0
130 -120 -142 0
130 -121 -153 0
130 -122 -163 0
130 -123 -172 0
130 -124 -180 0
130 -125 -187 0
130 -126 -193 0
130 -127 -198 0
130 -128 -202 0
130 -129 -205 0
130 -131 208 0
130 -132 209 0
142 8 -18 0
142 27 -37 0
142 45 -55 0
142 62 -72 0
142 78 -88 0
142 93 -103 0
142 107 -117 0
142 120 -130 0
142 -133 -153 0
142 -134 -163 0
142 -135 -172 0
142 -136 -180 0
142 -137 -187 0
142 -138 -193 0
142 -139 -198 0
142 -140 -202 0
142 -141 -205 0
142 -143 208 0
142 -144 209 0
153 9 -18 0
153 28 -37 0
153 46 -55 0
153 63 -72 0
153 79 -88 0
153 94 -103 0
153 108 -117 0
153 121 -130 0
153 133 -142 0
153 -145 -163 0
153 -146 -172 0
153 -147 -180 0
153 -148 -187 0
153 -149 -193 0
153 -150 -198 0
153 -151 -202 0
153 -152 -205 0
153 -154 208 0
153 -155 209 0
163 10 -18 0
163 29 -37 0
163 47 -55 0
163 64 -72 0
163 80 -88 0
163 95 -103 0
163 109 -117 0
163 122 -130 0
163 134 -142 0
163 145 -153 0
163 -156 -172 0
163 -157 -180 0
163 -158 -187 0
163 -159 -193 0
163 -160 -198 0
163 -161 -202 0
163 -162 -205 0
163 -164 208 0
163 -165 209 0
172 11 -18 0
172 30 -37 0
172 48 -55 0
172 65 -72 0
172 81 -88 0
172 96 -103 0
172 110 -117 0
172 123 -130 0
172 135 -142 0
172 146 -153 0
172 156 -163 0
172 -166 -180 0
172 -167 -187 0
172 -168 -193 0
172 -169 -198 0
172 -170 -202 0
172 -171 -205 0
172 -173 208 0
172 -174 209 0
180 12 -18 0
180 31 -37 0
180 49 -55 0
180 66 -72 0
180 82 -88 0
180 97 -103 0
180 111 -117 0
180 124 -130 0
180 136 -142 0
180 147 -153 0
180 157 -163 0
180 166 -172 0
180 -175 -187 0
180 -176 -193 0
180 -177 -198 0
180 -178 -202 0
180 -179 -205 0
180 -181 208 0
180 -182 209 0
187 13 -18 0
187 32 -37 0
187 50 -55 0
187 67 -72 0
187 83 -88 0
187 98 -103 0
187 112 -117 0
187 125 -130 0
187 137 -142 0
187 148 -153 0
187 158 -163 0
187 167 -172 0
187 175 -180 0
187 -183 -193 0
187 -184 -198 0
187 -185 -202 0
187 -186 -205 0
187 -188 208 0
187 -189 209 0
193 14 -18 0
193 33 -37 0
193 51 -55 0
193 68 -72 0
193 84 -88 0
193 99 -103 0
193 113 -117 0
193 126 -130 0
193 138 -142 0
193 149 -153 0
193 159 -163 0
193 168 -172 0
193 176 -180 0
193 183 -187 0
193 -190 -198 0
193 -191 -202 0
193 -192 -205 0
193 -194 208 0
193 -195 209 0
198 15 -18 0
198 34 -37 0
198 52 -55 0
198 69 -72 0
198 85 -88 0
198 100 -103 0
198 114 -117 0
198 127 -130 0
198 139 -142 0
198 150 -153 0
198 160 -163 0
198 169 -172 0
198 177 -180 0
198 184 -187 0
198 190 -193 0
198 -196 -202 0
198 -197 -205 0
198 -199 208 0
198 -200 209 0
202 16 -18 0
202 35 -37 0
202 53 -55 0
202 70 -72 0
202 86 -88 0
202 101 -103 0
202 115 -117 0
202 128 -130 0
202 140 -142 0
202 151 -153 0
202 161 -163 0
202 170 -172 0
202 178 -180 0
202 185 -187 0
202 191 -193 0
202 196 -198 0
202 -201 -205 0
202 -203 208 0
202 -204 209 0
205 17 -18 0
205 36 -37 0
205 54 -55 0
205 71 -72 0
205 87 -88 0
205 102 -103 0
205 116 -117 0
205 129 -130 0
205 141 -142 0
205 152 -153 0
205 162 -163 0
205 171 -172 0
205 179 -180 0
205 186 -187 0
205 192 -193 0
205 197 -198 0
205 201 -202 0
205 -206 208 0
205 -207 209 0
-208 19 -18 0
-208 38 -37 0
-208 56 -55 0
-208 73 -72 0
-208 89 -88 0
-208 104 -103 0
-208 118 -117 0
-208 131 -130 0
-208 143 -142 0
-208 154 -153 0
-208 164 -163 0
-208 173 -172 0
-208 181 -180 0
-208 188 -187 0
-208 194 -193 0
-208 199 -198 0
-208 203 -202 0
-208 206 -205 0
-208 -210 209 0
-209 20 -18 0
-209 39 -37 0
-209 57 -55 0
-209 74 -72 0
-209 90 -88 0
-209 105 -103 0
-209 119 -117 0
-209 132 -130 0
-209 144 -142 0
-209 155 -153 0
-209 165 -163 0
-209 174 -172 0
-209 182 -180 0
-209 189 -187 0
-209 195 -193 0
-209 200 -198 0
-209 204 -202 0
-209 207 -205 0
-209 210 208 0
19 -1 -38 0
19 -2 -56 0
19 -3 -73 0
19 -4 -89 0
19 -5 -104 0
19 -6 -118 0
19 -7 -131 0
19 -8 -143 0
19 -9 -154 0
19 -10 -164 0
19 -11 -173 0
19 -12 -181 0
19 -13 -188 0
19 -14 -194 0
19 -15 -199 0
19 -16 -203 0
19 -17 -206 0
19 -18 -208 0
19 -20 210 0
38 1 -19 0
38 -21 -56 0
38 -22 -73 0
38 -23 -89 0
38 -24 -104 0
38 -25 -118 0
38 -26 -131 0
38 -27 -143 0
38 -28 -154 0
38 -29 -164 0
38 -30 -173 0
38 -31 -181 0
38 -32 -188 0
38 -33 -194 0
38 -34 -199 0
38 -35 -203 0
38 -36 -206 0
38 -37 -208 0
38 -39 210 0
56 2 -19 0
56 21 -38 0
56 -40 -73 0
56 -41 -89 0
56 -42 -104 0
56 -43 -118 0
56 -44 -131 0
56 -45 -143 0
56 -46 -154 0
56 -47 -164 0
56 -48 -173 0
56 -49 -181 0
56 -50 -188 0
56 -51 -194 0
56 -52 -199 0
56 -53 -203 0
56 -54 -206 0
56 -55 -208 0
56 -57 210 0
73 3 -19 0
73 22 -38 0
73 40 -56 0
73 -58 -89 0
73 -59 -104 0
73 -60 -118 0
73 -61 -131 0
73 -62 -143 0
73 -63 -154 0
73 -64 -164 0
73 -65 -173 0
73 -66 -181 0
73 -67 -188 0
73 -68 -194 0
73 -69 -199 0
73 -70 -203 0
73 -71 -206 0
73 -72 -208 0
73 -74 210 0
89 4 -19 0
89 23 -38 0
89 41 -56 0
89 58 -73 0
89 -75 -104 0
89 -76 -118 0
89 -77 -131 0
89 -78 -143 0
89 -79 -154 0
89 -80 -164 0
89 -81 -173 0
89 -82 -181 0
89 -83 -188 0
89 -84 -194 0
89 -85 -199 0
89 -86 -203 0
89 -87 -206 0
89 -88 -208 0
89 -90 210 0
104 5 -19 0
104 24 -38 0
104 42 -56 0
104 59 -73 0
104 75 -89 0
104 -91 -118 0
104 -92 -131 0
104 -93 -143 0
104 -94 -154 0
104 -95 -164 0
104 -96 -173 0
104 -97 -181 0
104 -98 -188 0
104 -99 -194 0
104 -100 -199 0
104 -101 -203 0
104 -102 -206 0
104 -103 -208 0
104 -105 210 0
118 6 -19 0
118 25 -38 0
118 43 -56 0
118 60 -73 0
118 76 -89 0
118 91 -104 0
118 -106 -131 0
118 -107 -143 0
118 -108 -154 0
118 -109 -164 0
118 -110 -173 0
118 -111 -181 0
118 -112 -188 0
118 -113 -194 0
118 -114 -199 0
118 -115 -203 0
118 -116 -206 0
118 -117 -208 0
118 -119 210 0
131 7 -19 0
131 26 -38 0
131 44 -56 0
131 61 -73 0
131 77 -89 0
131 92 -104 0
131 106 -118 0
131 -120 -143 0
131 -121 -154 0
131 -122 -164 0
131 -123 -173 0
131 -124 -181 0
131 -125 -188 0
131 -126 -194 0
131 -127 -199 0
131 -128 -203 0
131 -129 -206 0
131 -130 -208 0
131 -132 210 0
143 8 -19 0
143 27 -38 0
143 45 -56 0
143 62 -73 0
143 78 -89 0
143 93 -104 0
143 107 -118 0
143 120 -131 0
143 -133 -154 0
143 -134 -164 0
143 -135 -173 0
143 -136 -181 0
143 -137 -188 0
143 -138 -194 0
143 -139 -199 0
143 -140 -203 0
143 -141 -206 0
143 -142 -208 0
143 -144 210 0
154 9 -19 0
154 28 -38 0
154 46 -56 0
154 63 -73 0
154 79 -89 0
154 94 -104 0
154 108 -118 0
154 121 -131 0
154 133 -143 0
154 -145 -164 0
154 -146 -173 0
154 -147 -181 0
154 -148 -188 0
154 -149 -194 0
154 -150 -199 0
154 -151 -203 0
154 -152 -206 0
154 -153 -208 0
154 -155 210 0
164 10 -19 0
164 29 -38 0
164 47 -56 0
164 64 -73 0
164 80 -89 0
164 95 -104 0
164 109 -118 0
164 122 -131 0
164 134 -143 0
164 145 -154 0
164 -156 -173 0
164 -157 -181 0
164 -158 -188 0
164 -159 -194 0
164 -160 -199 0
164 -161 -203 0
164 -162 -206 0
164 -163 -208 0
164 -165 210 0
173 11 -19 0
173 30 -38 0
173 48 -56 0
173 65 -73 0
173 81 -89 0
173 96 -104 0
173 110 -118 0
173 123 -131 0
173 135 -143 0
173 146 -154 0
173 156 -164 0
173 -166 -181 0
173 -167 -188 0
173 -168 -194 0
173 -169 -199 0
173 -170 -203 0
173 -171 -206 0
173 -172 -208 0
173 -174 210 0
181 12 -19 0
181 31 -38 0
181 49 -56 0
181 66 -73 0
181 82 -89 0
181 97 -104 0
181 111 -118 0
181 124 -131 0
181 136 -143 0
181 147 -154 0
181 157 -164 0
181 166 -173 0
181 -175 -188 0
181 -176 -194 0
181 -177 -199 0
181 -178 -203 0
181 -179 -206 0
181 -180 -208 0
181 -182 210 0
188 13 -19 0
188 32 -38 0
188 50 -56 0
188 67 -73 0
188 83 -89 0
188 98 -104 0
188 112 -118 0
188 125 -131 0
188 137 -143 0
188 148 -154 0
188 158 -164 0
188 167 -173 0
188 175 -181 0
188 -183 -194 0
188 -184 -199 0
188 -185 -203 0
188 -186 -206 0
188 -187 -208 0
188 -189 210 0
194 14 -19 0
194 33 -38 0
194 51 -56 0
194 68 -73 0
194 84 -89 0
194 99 -104 0
194 113 -118 0
194 126 -131 0
194 138 -143 0
194 149 -154 0
194 159 -164 0
194 168 -173 0
194 176 -181 0
194 183 -188 0
194 -190 -199 0
194 -191 -203 0
194 -192 -206 0
194 -193 -208 0
194 -195 210 0
199 15 -19 0
199 34 -38 0
199 52 -56 0
199 69 -73 0
199 85 -89 0
199 100 -104 0
199 114 -118 0
199 127 -131 0
199 139 -143 0
199 150 -154 0
199 160 -164 0
199 169 -173 0
199 177 -181 0
199 184 -188 0
199 190 -194 0
199 -196 -203 0
199 -197 -206 0
199 -198 -208 0
199 -200 210 0
203 16 -19 0
203 35 -38 0
203 53 -56 0
203 70 -73 0
203 86 -89 0
203 101 -104 0
203 115 -118 0
203 128 -131 0
203 140 -143 0
203 151 -154 0
203 161 -164 0
203 170 -173 0
203 178 -181 0
203 185 -188 0
203 191 -194 0
203 196 -199 0
203 -201 -206 0
203 -202 -208 0
203 -204 210 0
206 17 -19 0
206 36 -38 0
206 54 -56 0
206 71 -73 0
206 87 -89 0
206 102 -104 0
206 116 -118 0
206 129 -131 0
206 141 -143 0
206 152 -154 0
206 162 -164 0
206 171 -173 0
206 179 -181 0
206 186 -188 0
206 192 -194 0
206 197 -199 0
206 201 -203 0
206 -205 -208 0
206 -207 210 0
208 18 -19 0
208 37 -38 0
208 55 -56 0
208 72 -73 0
208 88 -89 0
208 103 -104 0
208 117 -118 0
208 130 -131 0
208 142 -143 0
208 153 -154 0
208 163 -164 0
208 172 -173 0
208 180 -181 0
208 187 -188 0
208 193 -194 0
208 198 -199 0
208 202 -203 0
208 205 -206 0
208 -209 210 0
-210 20 -19 0
-210 39 -38 0
-210 57 -56 0
-210 74 -73 0
-210 90 -89 0
-210 105 -104 0
-210 119 -118 0
-210 132 -131 0
-210 144 -143 0
-210 155 -154 0
-210 165 -164 0
-210 174 -173 0
-210 182 -181 0
-210 189 -188 0
-210 195 -194 0
-210 200 -199 0
-210 204 -203 0
-210 207 -206 0
-210 209 -208 0
20 -1 -39 0
20 -2 -57 0
20 -3 -74 0
20 -4 -90 0
20 -5 -105 0
20 -6 -119 0
20 -7 -132 0
20 -8 -144 0
20 -9 -155 0
20 -10 -165 0
20 -11 -174 0
20 -12 -182 0
20 -13 -189 0
20 -14 -195 0
20 -15 -200 0
20 -16 -204 0
20 -17 -207 0
20 -18 -209 0
20 -19 -210 0
39 1 -20 0
39 -21 -57 0
39 -22 -74 0
39 -23 -90 0
39 -24 -105 0
39 -25 -119 0
39 -26 -132 0
39 -27 -144 0
39 -28 -155 0
39 -29 -165 0
39 -30 -174 0
39 -31 -182 0
39 -32 -189 0
39 -33 -195 0
39 -34 -200 0
39 -35 -204 0
39 -36 -207 0
39 -37 -209 0
39 -38 -210 0
57 2 -20 0
57 21 -39 0
57 -40 -74 0
57 -41 -90 0
57 -42 -105 0
57 -43 -119 0
57 -44 -132 0
57 -45 -144 0
57 -46 -155 0
57 -47 -165 0
57 -48 -174 0
57 -49 -182 0
57 -50 -189 0
57 -51 -195 0
57 -52 -200 0
57 -53 -204 0
57 -54 -207 0
57 -55 -209 0
57 -56 -210 0
74 3 -20 0
74 22 -39 0
74 40 -57 0
74 -58 -90 0
74 -59 -105 0
74 -60 -119 0
74 -61 -132 0
74 -62 -144 0
74 -63 -155 0
74 -64 -165 0
74 -65 -174 0
74 -66 -182 0
74 -67 -189 0
74 -68 -195 0
74 -69 -200 0
74 -70 -204 0
74 -71 -207 0
74 -72 -209 0
74 -73 -210 0
90 4 -20 0
90 23 -39 0
90 41 -57 0
90 58 -74 0
90 -75 -105 0
90 -76 -119 0
90 -77 -132 0
90 -78 -144 0
90 -79 -155 0
90 -80 -165 0
90 -81 -174 0
90 -82 -182 0
90 -83 -189 0
90 -84 -195 0
90 -85 -200 0
90 -86 -204 0
90 -87 -207 0
90 -88 -209 0
90 -89 -210 0
105 5 -20 0
105 24 -39 0
105 42 -57 0
105 59 -74 0
105 75 -90 0
105 -91 -119 0
105 -92 -132 0
105 -93 -144 0
105 -94 -155 0
105 -95 -165 0
105 -96 -174 0
105 -97 -182 0
105 -98 -189 0
105 -99 -195 0
105 -100 -200 0
105 -101 -204 0
105 -102 -207 0
105 -103 -209 0
105 -104 -210 0
119 6 -20 0
119 25 -39 0
119 43 -57 0
119 60 -74 0
119 76 -90 0
119 91 -105 0
119 -106 -132 0
119 -107 -144 0
119 -108 -155 0
119 -109 -165 0
119 -110 -174 0
119 -111 -182 0
119 -112 -189 0
119 -113 -195 0
119 -114 -200 0
119 -115 -204 0
119 -116 -207 0
119 -117 -209 0
119 -118 -210 0
132 7 -20 0
132 26 -39 0
132 44 -57 0
132 61 -74 0
132 77 -90 0
132 92 -105 0
132 106 -119 0
132 -120 -144 0
132 -121 -155 0
132 -122 -165 0
132 -123 -174 0
132 -124 -182 0
132 -125 -189 0
132 -126 -195 0
132 -127 -200 0
132 -128 -204 0
132 -129 -207 0
132 -130 -209 0
132 -131 -210 0
144 8 -20 0
144 27 -39 0
144 45 -57 0
144 62 -74 0
144 78 -90 0
144 93 -105 0
144 107 -119 0
144 120 -132 0
144 -133 -155 0
144 -134 -165 0
144 -135 -174 0
144 -136 -182 0
144 -137 -189 0
144 -138 -195 0
144 -139 -200 0
144 -140 -204 0
144 -141 -207 0
144 -142 -209 0
144 -143 -210 0
155 9 -20 0
155 28 -39 0
155 46 -57 0
155 63 -74 0
155 79 -90 0
155 94 -105 0
155 108 -119 0
155 121 -132 0
155 133 -144 0
155 -145 -165 0
155 -146 -174 0
155 -147 -182 0
155 -148 -189 0
155 -149 -195 0
155 -150 -200 0
155 -151 -204 0
155 -152 -207 0
155 -153 -209 0
155 -154 -210 0
165 10 -20 0
165 29 -39 0
165 47 -57 0
165 64 -74 0
165 80 -90 0
165 95 -105 0
165 109 -119 0
165 122 -132 0
165 134 -144 0
165 145 -155 0
165 -156 -174 0
165 -157 -182 0
165 -158 -189 0
165 -159 -195 0
165 -160 -200 0
165 -161 -204 0
165 -162 -207 0
165 -163 -209 0
165 -164 -210 0
174 11 -20 0
174 30 -39 0
174 48 -57 0
174 65 -74 0
174 81 -90 0
174 96 -105 0
174 110 -119 0
174 123 -132 0
174 135 -144 0
174 146 -155 0
174 156 -165 0
174 -166 -182 0
174 -167 -189 0
174 -168 -195 0
174 -169 -200 0
174 -170 -204 0
174 -171 -207 0
174 -172 -209 0
174 -173 -210 0
182 12 -20 0
182 31 -39 0
182 49 -57 0
182 66 -74 0
182 82 -90 0
182 97 -105 0
182 111 -119 0
182 124 -132 0
182 136 -144 0
182 147 -155 0
182 157 -165 0
182 166 -174 0
182 -175 -189 0
182 -176 -195 0
182 -177 -200 0
182 -178 -204 0
182 -179 -207 0
182 -180 -209 0
182 -181 -210 0
189 13 -20 0
189 32 -39 0
189 50 -57 0
189 67 -74 0
189 83 -90 0
189 98 -105 0
189 112 -119 0
189 125 -132 0
189 137 -144 0
189 148 -155 0
189 158 -165 0
189 167 -174 0
189 175 -182 0
189 -183 -195 0
189 -184 -200 0
189 -185 -204 0
189 -186 -207 0
189 -187 -209 0
189 -188 -210 0
195 14 -20 0
195 33 -39 0
195 51 -57 0
195 68 -74 0
195 84 -90 0
195 99 -105 0
195 113 -119 0
195 126 -132 0
195 138 -144 0
195 149 -155 0
195 159 -165 0
195 168 -174 0
195 176 -182 0
195 183 -189 0
195 -190 -200 0
195 -191 -204 0
195 -192 -207 0
195 -193 -209 0
195 -194 -210 0
200 15 -20 0
200 34 -39 0
200 52 -57 0
200 69 -74 0
200 85 -90 0
200 100 -105 0
200 114 -119 0
200 127 -132 0
200 139 -144 0
200 150 -155 0
200 160 -165 0
200 169 -174 0
200 177 -182 0
200 184 -189 0
200 190 -195 0
200 -196 -204 0
200 -197 -207 0
200 -198 -209 0
200 -199 -210 0
204 16 -20 0
204 35 -39 0
204 53 -57 0
204 70 -74 0
204 86 -90 0
204 101 -105 0
204 115 -119 0
204 128 -132 0
204 140 -144 0
204 151 -155 0
204 161 -165 0
204 170 -174 0
204 178 -182 0
204 185 -189 0
204 191 -195 0
204 196 -200 0
204 -201 -207 0
204 -202 -209 0
204 -203 -210 0
207 17 -20 0
207 36 -39 0
207 54 -57 0
207 71 -74 0
207 87 -90 0
207 102 -105 0
207 116 -119 0
207 129 -132 0
207 141 -144 0
207 152 -155 0
207 162 -165 0
207 171 -174 0
207 179 -182 0
207 186 -189 0
207 192 -195 0
207 197 -200 0
207 201 -204 0
207 -205 -209 0
207 -206 -210 0
209 18 -20 0
209 37 -39 0
209 55 -57 0
209 72 -74 0
209 88 -90 0
209 103 -105 0
209 117 -119 0
209 130 -132 0
209 142 -144 0
209 153 -155 0
209 163 -165 0
209 172 -174 0
209 180 -182 0
209 187 -189 0
209 193 -195 0
209 198 -200 0
209 202 -204 0
209 205 -207 0
209 -208 -210 0
210 19 -20 0
210 38 -39 0
210 56 -57 0
210 73 -74 0
210 89 -90 0
210 104 -105 0
210 118 -119 0
210 131 -132 0
210 143 -144 0
210 154 -155 0
210 164 -165 0
210 173 -174 0
210 181 -182 0
210 188 -189 0
210 194 -195 0
210 199 -200 0
210 203 -204 0
210 206 -207 0
210 208 -209 0
21 2 -43 1 -25 -6 0
44 26 7 21 2 1 0
45 27 8 21 2 1 0
46 28 9 21 2 1 0
47 29 10 21 2 1 0
48 30 11 21 2 1 0
49 31 12 21 2 1 0
50 32 13 21 2 1 0
21 2 -51 1 -33 -14 0
21 2 -52 1 -34 -15 0
21 2 -53 1 -35 -16 0
21 2 -54 1 -36 -17 0
21 2 -55 1 -37 -18 0
21 2 -56 1 -38 -19 0
21 2 -57 1 -39 -20 0
26 92 7 -24 1 5 0
27 93 8 -24 1 5 0
28 94 9 -24 1 5 0
29 95 10 -24 1 5 0
30 96 11 -24 1 5 0
31 97 12 -24 1 5 0
32 98 13 -24 1 5 0
-24 1 -33 5 -99 -14 0
-24 1 -34 5 -100 -15 0
-24 1 -35 5 -101 -16 0
-24 1 -36 5 -102 -17 0
-24 1 -37 5 -103 -18 0
-24 1 -38 5 -104 -19 0
-24 1 -39 5 -105 -20 0
26 7 106 1 -25 -6 0
27 8 107 1 -25 -6 0
28 9 108 1 -25 -6 0
29 10 109 1 -25 -6 0
30 11 110 1 -25 -6 0
31 12 111 1 -25 -6 0
32 13 112 1 -25 -6 0
1 -25 -33 -6 -14 -113 0
1 -25 -34 -6 -15 -114 0
1 -25 -35 -6 -16 -115 0
1 -25 -36 -6 -17 -116 0
1 -25 -37 -6 -18 -117 0
1 -25 -38 -6 -19 -118 0
1 -25 -39 -6 -20 -119 0
120 27 8 26 7 1 0
121 28 9 26 7 1 0
-122 26 7 29 10 1 0
-123 26 7 30 11 1 0
124 31 12 26 7 1 0
-125 26 7 32 13 1 0
133 28 9 27 8 1 0
134 29 10 27 8 1 0
135 30 11 27 8 1 0
-136 27 8 31 12 1 0
-137 27 8 32 13 1 0
145 29 10 28 9 1 0
146 30 11 28 9 1 0
147 31 12 28 9 1 0
-148 28 9 32 13 1 0
156 30 11 29 10 1 0
-157 29 10 31 12 1 0
158 32 13 29 10 1 0
166 31 12 30 11 1 0
167 32 13 30 11 1 0
175 32 13 31 12 1 0
1 -34 -33 -15 -14 190 0
1 -35 -33 -16 -14 191 0
1 -33 -36 -14 -17 -192 0
1 -33 -37 -14 -18 -193 0
1 -38 -33 -19 -14 194 0
1 -33 -39 -14 -20 -195 0
1 -35 -34 -16 -15 196 0
1 -36 -34 -17 -15 197 0
1 -37 -34 -18 -15 198 0
1 -34 -38 -15 -19 -199 0
1 -34 -39 -15 -20 -200 0
1 -36 -35 -17 -16 201 0
1 -37 -35 -18 -16 202 0
1 -38 -35 -19 -16 203 0
1 -35 -39 -16 -20 -204 0
1 -37 -36 -18 -17 205 0
1 -36 -38 -17 -19 -206 0
1 -39 -36 -20 -17 207 0
1 -38 -37 -19 -18 208 0
1 -39 -37 -20 -18 209 0
1 -39 -38 -20 -19 210 0
92 44 7 42 5 2 0
93 45 8 42 5 2 0
94 46 9 42 5 2 0
95 47 10 42 5 2 0
96 48 11 42 5 2 0
97 49 12 42 5 2 0
98 50 13 42 5 2 0
42 5 -99 2 -51 -14 0
42 5 -100 2 -52 -15 0
42 5 -101 2 -53 -16 0
42 5 -102 2 -54 -17 0
42 5 -103 2 -55 -18 0
42 5 -104 2 -56 -19 0
42 5 -105 2 -57 -20 0
44 7 106 2 -43 -6 0
45 8 107 2 -43 -6 0
46 9 108 2 -43 -6 0
47 10 109 2 -43 -6 0
48 11 110 2 -43 -6 0
49 12 111 2 -43 -6 0
50 13 112 2 -43 -6 0
2 -43 -51 -6 -14 -113 0
2 -43 -52 -6 -15 -114 0
2 -43 -53 -6 -16 -115 0
2 -43 -54 -6 -17 -116 0
2 -43 -55 -6 -18 -117 0
2 -43 -56 -6 -19 -118 0
2 -43 -57 -6 -20 -119 0
120 45 8 44 7 2 0
121 46 9 44 7 2 0
-122 44 7 47 10 2 0
-123 44 7 48 11 2 0
124 49 12 44 7 2 0
-125 44 7 50 13 2 0
133 46 9 45 8 2 0
134 47 10 45 8 2 0
135 48 11 45 8 2 0
-136 45 8 49 12 2 0
-137 45 8 50 13 2 0
145 47 10 46 9 2 0
146 48 11 46 9 2 0
147 49 12 46 9 2 0
-148 46 9 50 13 2 0
156 48 11 47 10 2 0
-157 47 10 49 12 2 0
158 50 13 47 10 2 0
166 49 12 48 11 2 0
167 50 13 48 11 2 0
175 50 13 49 12 2 0
2 -52 -51 -15 -14 190 0
2 -53 -51 -16 -14 191 0
2 -51 -54 -14 -17 -192 0
2 -51 -55 -14 -18 -193 0
2 -56 -51 -19 -14 194 0
2 -51 -57 -14 -20 -195 0
2 -53 -52 -16 -15 196 0
2 -54 -52 -17 -15 197 0
2 -55 -52 -18 -15 198 0
2 -52 -56 -15 -19 -199 0
2 -52 -57 -15 -20 -200 0
2 -54 -53 -17 -16 201 0
2 -55 -53 -18 -16 202 0
2 -56 -53 -19 -16 203 0
2 -53 -57 -16 -20 -204 0
2 -55 -54 -18 -17 205 0
2 -54 -56 -17 -19 -206 0
2 -57 -54 -20 -17 207 0
2 -56 -55 -19 -18 208 0
2 -57 -55 -20 -18 209 0
2 -57 -56 -20 -19 210 0
-6 -4 -3 76 60 58 0
7 77 61 -4 -3 58 0
8 78 62 -4 -3 58 0
9 79 63 -4 -3 58 0
10 80 64 -4 -3 58 0
11 81 65 -4 -3 58 0
12 82 66 -4 -3 58 0
13 83 67 -4 -3 58 0
-4 -3 -14 58 -84 -68 0
-4 -3 -15 58 -85 -69 0
-4 -3 -16 58 -86 -70 0
-4 -3 -17 58 -87 -71 0
-4 -3 -18 58 -88 -72 0
-4 -3 -19 58 -89 -73 0
-4 -3 -20 58 -90 -74 0
7 106 61 -6 -3 60 0
8 107 62 -6 -3 60 0
9 108 63 -6 -3 60 0
10 109 64 -6 -3 60 0
11 110 65 -6 -3 60 0
12 111 66 -6 -3 60 0
13 112 67 -6 -3 60 0
-6 -3 -14 60 -113 -68 0
-6 -3 -15 60 -114 -69 0
-6 -3 -16 60 -115 -70 0
-6 -3 -17 60 -116 -71 0
-6 -3 -18 60 -117 -72 0
-6 -3 -19 60 -118 -73 0
-6 -3 -20 60 -119 -74 0
120 8 62 7 61 -3 0
121 9 63 7 61 -3 0
-122 7 61 10 64 -3 0
-123 7 61 11 65 -3 0
124 12 66 7 61 -3 0
-125 7 61 13 67 -3 0
133 9 63 8 62 -3 0
134 10 64 8 62 -3 0
135 11 65 8 62 -3 0
-136 8 62 12 66 -3 0
-137 8 62 13 67 -3 0
145 10 64 9 63 -3 0
146 11 65 9 63 -3 0
147 12 66 9 63 -3 0
-148 9 63 13 67 -3 0
156 11 65 10 64 -3 0
-157 10 64 12 66 -3 0
158 13 67 10 64 -3 0
166 12 66 11 65 -3 0
167 13 67 11 65 -3 0
175 13 67 12 66 -3 0
-3 -15 -14 -69 -68 190 0
-3 -16 -14 -70 -68 191 0
-3 -14 -17 -68 -71 -192 0
-3 -14 -18 -68 -72 -193 0
-3 -19 -14 -73 -68 194 0
-3 -14 -20 -68 -74 -195 0
-3 -16 -15 -70 -69 196 0
-3 -17 -15 -71 -69 197 0
-3 -18 -15 -72 -69 198 0
-3 -15 -19 -69 -73 -199 0
-3 -15 -20 -69 -74 -200 0
-3 -17 -16 -71 -70 201 0
-3 -18 -16 -72 -70 202 0
-3 -19 -16 -73 -70 203 0
-3 -16 -20 -70 -74 -204 0
-3 -18 -17 -72 -71 205 0
-3 -17 -19 -71 -73 -206 0
-3 -20 -17 -74 -71 207 0
-3 -19 -18 -73 -72 208 0
-3 -20 -18 -74 -72 209 0
-3 -20 -19 -74 -73 210 0
92 7 77 5 75 -4 0
93 8 78 5 75 -4 0
94 9 79 5 75 -4 0
95 10 80 5 75 -4 0
96 11 81 5 75 -4 0
97 12 82 5 75 -4 0
98 13 83 5 75 -4 0
5 75 -99 -4 -14 -84 0
5 75 -100 -4 -15 -85 0
5 75 -101 -4 -16 -86 0
5 75 -102 -4 -17 -87 0
5 75 -103 -4 -18 -88 0
5 75 -104 -4 -19 -89 0
5 75 -105 -4 -20 -90 0
7 106 77 -6 -4 76 0
8 107 78 -6 -4 76 0
9 108 79 -6 -4 76 0
10 109 80 -6 -4 76 0
11 110 81 -6 -4 76 0
12 111 82 -6 -4 76 0
13 112 83 -6 -4 76 0
-6 -4 -14 76 -113 -84 0
-6 -4 -15 76 -114 -85 0
-6 -4 -16 76 -115 -86 0
-6 -4 -17 76 -116 -87 0
-6 -4 -18 76 -117 -88 0
-6 -4 -19 76 -118 -89 0
-6 -4 -20 76 -119 -90 0
120 8 78 7 77 -4 0
121 9 79 7 77 -4 0
-122 7 77 10 80 -4 0
-123 7 77 11 81 -4 0
124 12 82 7 77 -4 0
-125 7 77 13 83 -4 0
133 9 79 8 78 -4 0
134 10 80 8 78 -4 0
135 11 81 8 78 -4 0
-136 8 78 12 82 -4 0
-137 8 78 13 83 -4 0
145 10 80 9 79 -4 0
146 11 81 9 79 -4 0
147 12 82 9 79 -4 0
-148 9 79 13 83 -4 0
156 11 81 10 80 -4 0
-157 10 80 12 82 -4 0
158 13 83 10 80 -4 0
166 12 82 11 81 -4 0
167 13 83 11 81 -4 0
175 13 83 12 82 -4 0
-4 -15 -14 -85 -84 190 0
-4 -16 -14 -86 -84 191 0
-4 -14 -17 -84 -87 -192 0
-4 -14 -18 -84 -88 -193 0
-4 -19 -14 -89 -84 194 0
-4 -14 -20 -84 -90 -195 0
-4 -16 -15 -86 -85 196 0
-4 -17 -15 -87 -85 197 0
-4 -18 -15 -88 -85 198 0
-4 -15 -19 -85 -89 -199 0
-4 -15 -20 -85 -90 -200 0
-4 -17 -16 -87 -86 201 0
-4 -18 -16 -88 -86 202 0
-4 -19 -16 -89 -86 203 0
-4 -16 -20 -86 -90 -204 0
-4 -18 -17 -88 -87 205 0
-4 -17 -19 -87 -89 -206 0
-4 -20 -17 -90 -87 207 0
-4 -19 -18 -89 -88 208 0
-4 -20 -18 -90 -88 209 0
-4 -20 -19 -90 -89 210 0
120 93 8 92 7 5 0
121 94 9 92 7 5 0
-122 92 7 95 10 5 0
-123 92 7 96 11 5 0
124 97 12 92 7 5 0
-125 92 7 98 13 5 0
133 94 9 93 8 5 0
134 95 10 93 8 5 0
135 96 11 93 8 5 0
-136 93 8 97 12 5 0
-137 93 8 98 13 5 0
145 95 10 94 9 5 0
146 96 11 94 9 5 0
147 97 12 94 9 5 0
-148 94 9 98 13 5 0
156 96 11 95 10 5 0
-157 95 10 97 12 5 0
158 98 13 95 10 5 0
166 97 12 96 11 5 0
167 98 13 96 11 5 0
175 98 13 97 12 5 0
5 -100 -99 -15 -14 190 0
5 -101 -99 -16 -14 191 0
5 -99 -102 -14 -17 -192 0
5 -99 -103 -14 -18 -193 0
5 -104 -99 -19 -14 194 0
5 -99 -105 -14 -20 -195 0
5 -101 -100 -16 -15 196 0
5 -102 -100 -17 -15 197 0
5 -103 -100 -18 -15 198 0
5 -100 -104 -15 -19 -199 0
5 -100 -105 -15 -20 -200 0
5 -102 -101 -17 -16 201 0
5 -103 -101 -18 -16 202 0
5 -104 -101 -19 -16 203 0
5 -101 -105 -16 -20 -204 0
5 -103 -102 -18 -17 205 0
5 -102 -104 -17 -19 -206 0
5 -105 -102 -20 -17 207 0
5 -104 -103 -19 -18 208 0
5 -105 -103 -20 -18 209 0
5 -105 -104 -20 -19 210 0
120 8 107 7 106 -6 0
121 9 108 7 106 -6 0
-122 7 106 10 109 -6 0
-123 7 106 11 110 -6 0
124 12 111 7 106 -6 0
-125 7 106 13 112 -6 0
133 9 108 8 107 -6 0
134 10 109 8 107 -6 0
135 11 110 8 107 -6 0
-136 8 107 12 111 -6 0
-137 8 107 13 112 -6 0
145 10 109 9 108 -6 0
146 11 110 9 108 -6 0
147 12 111 9 108 -6 0
-148 9 108 13 112 -6 0
156 11 110 10 109 -6 0
-157 10 109 12 111 -6 0
158 13 112 10 109 -6 0
166 12 111 11 110 -6 0
167 13 112 11 110 -6 0
175 13 112 12 111 -6 0
-6 -15 -14 -114 -113 190 0
-6 -16 -14 -115 -113 191 0
-6 -14 -17 -113 -116 -192 0
-6 -14 -18 -113 -117 -193 0
-6 -19 -14 -118 -113 194 0
-6 -14 -20 -113 -119 -195 0
-6 -16 -15 -115 -114 196 0
-6 -17 -15 -116 -114 197 0
-6 -18 -15 -117 -114 198 0
-6 -15 -19 -114 -118 -199 0
-6 -15 -20 -114 -119 -200 0
-6 -17 -16 -116 -115 201 0
-6 -18 -16 -117 -115 202 0
-6 -19 -16 -118 -115 203 0
-6 -16 -20 -115 -119 -204 0
-6 -18 -17 -117 -116 205 0
-6 -17 -19 -116 -118 -206 0
-6 -20 -17 -119 -116 207 0
-6 -19 -18 -118 -117 208 0
-6 -20 -18 -119 -117 209 0
-6 -20 -19 -119 -118 210 0
133 121 9 120 8 7 0
-136 120 8 124 12 7 0
120 -137 8 -125 7 13 0
147 124 12 121 9 7 0
121 -148 9 -125 7 13 0
-123 -122 7 156 11 10 0
-125 -122 7 158 13 10 0
124 166 12 -123 7 11 0
-125 -123 7 167 13 11 0
145 134 10 133 9 8 0
146 135 11 133 9 8 0
133 -148 9 -137 8 13 0
156 135 11 134 10 8 0
134 -157 10 -136 8 12 0
-137 -136 8 175 13 12 0
156 146 11 145 10 9 0
-157 145 10 147 12 9 0
166 147 12 146 11 9 0
167 158 13 156 11 10 0
158 175 13 -157 10 12 0
175 167 13 166 12 11 0
-16 -15 -14 196 191 190 0
-15 -19 -14 -199 190 194 0
-15 -14 -20 190 -200 -195 0
-19 -16 -14 203 194 191 0
-16 -14 -20 191 -204 -195 0
-14 -18 -17 -193 -192 205 0
-14 -20 -17 -195 -192 207 0
-19 -14 -18 194 208 -193 0
-14 -20 -18 -195 -193 209 0
-17 -16 -15 201 197 196 0
-18 -16 -15 202 198 196 0
-16 -15 -20 196 -204 -200 0
-18 -17 -15 205 198 197 0
-17 -15 -19 197 -206 -199 0
-15 -20 -19 -200 -199 210 0
-18 -17 -16 205 202 201 0
-17 -19 -16 -206 201 203 0
-19 -18 -16 208 203 202 0
-20 -18 -17 209 207 205 0
-20 -17 -19 207 210 -206 0
-20 -19 -18 210 209 208 0
58 41 23 40 22 21 0
61 44 26 40 22 21 0
62 45 27 40 22 21 0
63 46 28 40 22 21 0
64 47 29 40 22 21 0
65 48 30 40 22 21 0
66 49 31 40 22 21 0
67 50 32 40 22 21 0
40 22 -68 21 -51 -33 0
40 22 -69 21 -52 -34 0
40 22 -70 21 -53 -35 0
40 22 -71 21 -54 -36 0
40 22 -72 21 -55 -37 0
40 22 -73 21 -56 -38 0
40 22 -74 21 -57 -39 0
77 44 26 41 23 21 0
78 45 27 41 23 21 0
79 46 28 41 23 21 0
80 47 29 41 23 21 0
81 48 30 41 23 21 0
82 49 31 41 23 21 0
83 50 32 41 23 21 0
41 23 -84 21 -51 -33 0
41 23 -85 21 -52 -34 0
41 23 -86 21 -53 -35 0
41 23 -87 21 -54 -36 0
41 23 -88 21 -55 -37 0
41 23 -89 21 -56 -38 0
41 23 -90 21 -57 -39 0
44 26 106 21 -43 -25 0
45 27 107 21 -43 -25 0
46 28 108 21 -43 -25 0
47 29 109 21 -43 -25 0
48 30 110 21 -43 -25 0
49 31 111 21 -43 -25 0
50 32 112 21 -43 -25 0
21 -43 -51 -25 -33 -113 0
21 -43 -52 -25 -34 -114 0
21 -43 -53 -25 -35 -115 0
21 -43 -54 -25 -36 -116 0
21 -43 -55 -25 -37 -117 0
21 -43 -56 -25 -38 -118 0
21 -43 -57 -25 -39 -119 0
120 45 27 44 26 21 0
121 46 28 44 26 21 0
-122 44 26 47 29 21 0
-123 44 26 48 30 21 0
124 49 31 44 26 21 0
-125 44 26 50 32 21 0
133 46 28 45 27 21 0
134 47 29 45 27 21 0
135 48 30 45 27 21 0
-136 45 27 49 31 21 0
-137 45 27 50 32 21 0
145 47 29 46 28 21 0
146 48 30 46 28 21 0
147 49 31 46 28 21 0
-148 46 28 50 32 21 0
156 48 30 47 29 21 0
-157 47 29 49 31 21 0
158 50 32 47 29 21 0
166 49 31 48 30 21 0
167 50 32 48 30 21 0
175 50 32 49 31 21 0
21 -52 -51 -34 -33 190 0
21 -53 -51 -35 -33 191 0
21 -51 -54 -33 -36 -192 0
21 -51 -55 -33 -37 -193 0
21 -56 -51 -38 -33 194 0
21 -51 -57 -33 -39 -195 0
21 -53 -52 -35 -34 196 0
21 -54 -52 -36 -34 197 0
21 -55 -52 -37 -34 198 0
21 -52 -56 -34 -38 -199 0
21 -52 -57 -34 -39 -200 0
21 -54 -53 -36 -35 201 0
21 -55 -53 -37 -35 202 0
21 -56 -53 -38 -35 203 0
21 -53 -57 -35 -39 -204 0
21 -55 -54 -37 -36 205 0
21 -54 -56 -36 -38 -206 0
21 -57 -54 -39 -36 207 0
21 -56 -55 -38 -37 208 0
21 -57 -55 -39 -37 209 0
21 -57 -56 -39 -38 210 0
77 61 26 58 23 22 0
78 62 27 58 23 22 0
79 63 28 58 23 22 0
80 64 29 58 23 22 0
81 65 30 58 23 22 0
82 66 31 58 23 22 0
83 67 32 58 23 22 0
58 23 -84 22 -68 -33 0
58 23 -85 22 -69 -34 0
58 23 -86 22 -70 -35 0
58 23 -87 22 -71 -36 0
58 23 -88 22 -72 -37 0
58 23 -89 22 -73 -38 0
58 23 -90 22 -74 -39 0
61 26 92 22 -59 -24 0
62 27 93 22 -59 -24 0
63 28 94 22 -59 -24 0
64 29 95 22 -59 -24 0
65 30 96 22 -59 -24 0
66 31 97 22 -59 -24 0
67 32 98 22 -59 -24 0
22 -59 -68 -24 -33 -99 0
22 -59 -69 -24 -34 -100 0
22 -59 -70 -24 -35 -101 0
22 -59 -71 -24 -36 -102 0
22 -59 -72 -24 -37 -103 0
22 -59 -73 -24 -38 -104 0
22 -59 -74 -24 -39 -105 0
120 62 27 61 26 22 0
121 63 28 61 26 22 0
-122 61 26 64 29 22 0
-123 61 26 65 30 22 0
124 66 31 61 26 22 0
-125 61 26 67 32 22 0
133 63 28 62 27 22 0
134 64 29 62 27 22 0
135 65 30 62 27 22 0
-136 62 27 66 31 22 0
-137 62 27 67 32 22 0
145 64 29 63 28 22 0
146 65 30 63 28 22 0
147 66 31 63 28 22 0
-148 63 28 67 32 22 0
156 65 30 64 29 22 0
-157 64 29 66 31 22 0
158 67 32 64 29 22 0
166 66 31 65 30 22 0
167 67 32 65 30 22 0
175 67 32 66 31 22 0
22 -69 -68 -34 -33 190 0
22 -70 -68 -35 -33 191 0
22 -68 -71 -33 -36 -192 0
22 -68 -72 -33 -37 -193 0
22 -73 -68 -38 -33 194 0
22 -68 -74 -33 -39 -195 0
22 -70 -69 -35 -34 196 0
22 -71 -69 -36 -34 197 0
22 -72 -69 -37 -34 198 0
22 -69 -73 -34 -38 -199 0
22 -69 -74 -34 -39 -200 0
22 -71 -70 -36 -35 201 0
22 -72 -70 -37 -35 202 0
22 -73 -70 -38 -35 203 0
22 -70 -74 -35 -39 -204 0
22 -72 -71 -37 -36 205 0
22 -71 -73 -36 -38 -206 0
22 -74 -71 -39 -36 207 0
22 -73 -72 -38 -37 208 0
22 -74 -72 -39 -37 209 0
22 -74 -73 -39 -38 210 0
120 78 27 77 26 23 0
121 79 28 77 26 23 0
-122 77 26 80 29 23 0
-123 77 26 81 30 23 0
124 82 31 77 26 23 0
-125 77 26 83 32 23 0
133 79 28 78 27 23 0
134 80 29 78 27 23 0
135 81 30 78 27 23 0
-136 78 27 82 31 23 0
-137 78 27 83 32 23 0
145 80 29 79 28 23 0
146 81 30 79 28 23 0
147 82 31 79 28 23 0
-148 79 28 83 32 23 0
156 81 30 80 29 23 0
-157 80 29 82 31 23 0
158 83 32 80 29 23 0
166 82 31 81 30 23 0
167 83 32 81 30 23 0
175 83 32 82 31 23 0
23 -85 -84 -34 -33 190 0
23 -86 -84 -35 -33 191 0
23 -84 -87 -33 -36 -192 0
23 -84 -88 -33 -37 -193 0
23 -89 -84 -38 -33 194 0
23 -84 -90 -33 -39 -195 0
23 -86 -85 -35 -34 196 0
23 -87 -85 -36 -34 197 0
23 -88 -85 -37 -34 198 0
23 -85 -89 -34 -38 -199 0
23 -85 -90 -34 -39 -200 0
23 -87 -86 -36 -35 201 0
23 -88 -86 -37 -35 202 0
23 -89 -86 -38 -35 203 0
23 -86 -90 -35 -39 -204 0
23 -88 -87 -37 -36 205 0
23 -87 -89 -36 -38 -206 0
23 -90 -87 -39 -36 207 0
23 -89 -88 -38 -37 208 0
23 -90 -88 -39 -37 209 0
23 -90 -89 -39 -38 210 0
26 106 92 -25 -24 91 0
27 107 93 -25 -24 91 0
28 108 94 -25 -24 91 0
29 109 95 -25 -24 91 0
30 110 96 -25 -24 91 0
31 111 97 -25 -24 91 0
32 112 98 -25 -24 91 0
-25 -24 -33 91 -113 -99 0
-25 -24 -34 91 -114 -100 0
-25 -24 -35 91 -115 -101 0
-25 -24 -36 91 -116 -102 0
-25 -24 -37 91 -117 -103 0
-25 -24 -38 91 -118 -104 0
-25 -24 -39 91 -119 -105 0
120 27 93 26 92 -24 0
121 28 94 26 92 -24 0
-122 26 92 29 95 -24 0
-123 26 92 30 96 -24 0
124 31 97 26 92 -24 0
-125 26 92 32 98 -24 0
133 28 94 27 93 -24 0
134 29 95 27 93 -24 0
135 30 96 27 93 -24 0
-136 27 93 31 97 -24 0
-137 27 93 32 98 -24 0
145 29 95 28 94 -24 0
146 30 96 28 94 -24 0
147 31 97 28 94 -24 0
-148 28 94 32 98 -24 0
156 30 96 29 95 -24 0
-157 29 95 31 97 -24 0
158 32 98 29 95 -24 0
166 31 97 30 96 -24 0
167 32 98 30 96 -24 0
175 32 98 31 97 -24 0
-24 -34 -33 -100 -99 190 0
-24 -35 -33 -101 -99 191 0
-24 -33 -36 -99 -102 -192 0
-24 -33 -37 -99 -103 -193 0
-24 -38 -33 -104 -99 194 0
-24 -33 -39 -99 -105 -195 0
-24 -35 -34 -101 -100 196 0
-24 -36 -34 -102 -100 197 0
-24 -37 -34 -103 -100 198 0
-24 -34 -38 -100 -104 -199 0
-24 -34 -39 -100 -105 -200 0
-24 -36 -35 -102 -101 201 0
-24 -37 -35 -103 -101 202 0
-24 -38 -35 -104 -101 203 0
-24 -35 -39 -101 -105 -204 0
-24 -37 -36 -103 -102 205 0
-24 -36 -38 -102 -104 -206 0
-24 -39 -36 -105 -102 207 0
-24 -38 -37 -104 -103 208 0
-24 -39 -37 -105 -103 209 0
-24 -39 -38 -105 -104 210 0
120 27 107 26 106 -25 0
121 28 108 26 106 -25 0
-122 26 106 29 109 -25 0
-123 26 106 30 110 -25 0
124 31 111 26 106 -25 0
-125 26 106 32 112 -25 0
133 28 108 27 107 -25 0
134 29 109 27 107 -25 0
135 30 110 27 107 -25 0
-136 27 107 31 111 -25 0
-137 27 107 32 112 -25 0
145 29 109 28 108 -25 0
146 30 110 28 108 -25 0
147 31 111 28 108 -25 0
-148 28 108 32 112 -25 0
156 30 110 29 109 -25 0
-157 29 109 31 111 -25 0
158 32 112 29 109 -25 0
166 31 111 30 110 -25 0
167 32 112 30 110 -25 0
175 32 112 31 111 -25 0
-25 -34 -33 -114 -113 190 0
-25 -35 -33 -115 -113 191 0
-25 -33 -36 -113 -116 -192 0
-25 -33 -37 -113 -117 -193 0
-25 -38 -33 -118 -113 194 0
-25 -33 -39 -113 -119 -195 0
-25 -35 -34 -115 -114 196 0
-25 -36 -34 -116 -114 197 0
-25 -37 -34 -117 -114 198 0
-25 -34 -38 -114 -118 -199 0
-25 -34 -39 -114 -119 -200 0
-25 -36 -35 -116 -115 201 0
-25 -37 -35 -117 -115 202 0
-25 -38 -35 -118 -115 203 0
-25 -35 -39 -115 -119 -204 0
-25 -37 -36 -117 -116 205 0
-25 -36 -38 -116 -118 -206 0
-25 -39 -36 -119 -116 207 0
-25 -38 -37 -118 -117 208 0
-25 -39 -37 -119 -117 209 0
-25 -39 -38 -119 -118 210 0
133 121 28 120 27 26 0
-136 120 27 124 31 26 0
120 -137 27 -125 26 32 0
147 124 31 121 28 26 0
121 -148 28 -125 26 32 0
-123 -122 26 156 30 29 0
-125 -122 26 158 32 29 0
124 166 31 -123 26 30 0
-125 -123 26 167 32 30 0
145 134 29 133 28 27 0
146 135 30 133 28 27 0
133 -148 28 -137 27 32 0
156 135 30 134 29 27 0
134 -157 29 -136 27 31 0
-137 -136 27 175 32 31 0
156 146 30 145 29 28 0
-157 145 29 147 31 28 0
166 147 31 146 30 28 0
167 158 32 156 30 29 0
158 175 32 -157 29 31 0
175 167 32 166 31 30 0
-35 -34 -33 196 191 190 0
-34 -38 -33 -199 190 194 0
-34 -33 -39 190 -200 -195 0
-38 -35 -33 203 194 191 0
-35 -33 -39 191 -204 -195 0
-33 -37 -36 -193 -192 205 0
-33 -39 -36 -195 -192 207 0
-38 -33 -37 194 208 -193 0
-33 -39 -37 -195 -193 209 0
-36 -35 -34 201 197 196 0
-37 -35 -34 202 198 196 0
-35 -34 -39 196 -204 -200 0
-37 -36 -34 205 198 197 0
-36 -34 -38 197 -206 -199 0
-34 -39 -38 -200 -199 210 0
-37 -36 -35 205 202 201 0
-36 -38 -35 -206 201 203 0
-38 -37 -35 208 203 202 0
-39 -37 -36 209 207 205 0
-39 -36 -38 207 210 -206 0
-39 -38 -37 210 209 208 0
77 61 44 58 41 40 0
78 62 45 58 41 40 0
79 63 46 58 41 40 0
80 64 47 58 41 40 0
81 65 48 58 41 40 0
82 66 49 58 41 40 0
83 67 50 58 41 40 0
58 41 -84 40 -68 -51 0
58 41 -85 40 -69 -52 0
58 41 -86 40 -70 -53 0
58 41 -87 40 -71 -54 0
58 41 -88 40 -72 -55 0
58 41 -89 40 -73 -56 0
58 41 -90 40 -74 -57 0
61 92 44 -59 40 42 0
62 93 45 -59 40 42 0
63 94 46 -59 40 42 0
64 95 47 -59 40 42 0
65 96 48 -59 40 42 0
66 97 49 -59 40 42 0
67 98 50 -59 40 42 0
-59 40 -68 42 -99 -51 0
-59 40 -69 42 -100 -52 0
-59 40 -70 42 -101 -53 0
-59 40 -71 42 -102 -54 0
-59 40 -72 42 -103 -55 0
-59 40 -73 42 -104 -56 0
-59 40 -74 42 -105 -57 0
120 62 45 61 44 40 0
121 63 46 61 44 40 0
-122 61 44 64 47 40 0
-123 61 44 65 48 40 0
124 66 49 61 44 40 0
-125 61 44 67 50 40 0
133 63 46 62 45 40 0
134 64 47 62 45 40 0
135 65 48 62 45 40 0
-136 62 45 66 49 40 0
-137 62 45 67 50 40 0
145 64 47 63 46 40 0
146 65 48 63 46 40 0
147 66 49 63 46 40 0
-148 63 46 67 50 40 0
156 65 48 64 47 40 0
-157 64 47 66 49 40 0
158 67 50 64 47 40 0
166 66 49 65 48 40 0
167 67 50 65 48 40 0
175 67 50 66 49 40 0
40 -69 -68 -52 -51 190 0
40 -70 -68 -53 -51 191 0
40 -68 -71 -51 -54 -192 0
40 -68 -72 -51 -55 -193 0
40 -73 -68 -56 -51 194 0
40 -68 -74 -51 -57 -195 0
40 -70 -69 -53 -52 196 0
40 -71 -69 -54 -52 197 0
40 -72 -69 -55 -52 198 0
40 -69 -73 -52 -56 -199 0
40 -69 -74 -52 -57 -200 0
40 -71 -70 -54 -53 201 0
40 -72 -70 -55 -53 202 0
40 -73 -70 -56 -53 203 0
40 -70 -74 -53 -57 -204 0
40 -72 -71 -55 -54 205 0
40 -71 -73 -54 -56 -206 0
40 -74 -71 -57 -54 207 0
40 -73 -72 -56 -55 208 0
40 -74 -72 -57 -55 209 0
40 -74 -73 -57 -56 210 0
92 77 44 75 42 41 0
93 78 45 75 42 41 0
94 79 46 75 42 41 0
95 80 47 75 42 41 0
96 81 48 75 42 41 0
97 82 49 75 42 41 0
98 83 50 75 42 41 0
75 42 -99 41 -84 -51 0
75 42 -100 41 -85 -52 0
75 42 -101 41 -86 -53 0
75 42 -102 41 -87 -54 0
75 42 -103 41 -88 -55 0
75 42 -104 41 -89 -56 0
75 42 -105 41 -90 -57 0
120 78 45 77 44 41 0
121 79 46 77 44 41 0
-122 77 44 80 47 41 0
-123 77 44 81 48 41 0
124 82 49 77 44 41 0
-125 77 44 83 50 41 0
133 79 46 78 45 41 0
134 80 47 78 45 41 0
135 81 48 78 45 41 0
-136 78 45 82 49 41 0
-137 78 45 83 50 41 0
145 80 47 79 46 41 0
146 81 48 79 46 41 0
147 82 49 79 46 41 0
-148 79 46 83 50 41 0
156 81 48 80 47 41 0
-157 80 47 82 49 41 0
158 83 50 80 47 41 0
166 82 49 81 48 41 0
167 83 50 81 48 41 0
175 83 50 82 49 41 0
41 -85 -84 -52 -51 190 0
41 -86 -84 -53 -51 191 0
41 -84 -87 -51 -54 -192 0
41 -84 -88 -51 -55 -193 0
41 -89 -84 -56 -51 194 0
41 -84 -90 -51 -57 -195 0
41 -86 -85 -53 -52 196 0
41 -87 -85 -54 -52 197 0
41 -88 -85 -55 -52 198 0
41 -85 -89 -52 -56 -199 0
41 -85 -90 -52 -57 -200 0
41 -87 -86 -54 -53 201 0
41 -88 -86 -55 -53 202 0
41 -89 -86 -56 -53 203 0
41 -86 -90 -53 -57 -204 0
41 -88 -87 -55 -54 205 0
41 -87 -89 -54 -56 -206 0
41 -90 -87 -57 -54 207 0
41 -89 -88 -56 -55 208 0
41 -90 -88 -57 -55 209 0
41 -90 -89 -57 -56 210 0
120 93 45 92 44 42 0
121 94 46 92 44 42 0
-122 92 44 95 47 42 0
-123 92 44 96 48 42 0
124 97 49 92 44 42 0
-125 92 44 98 50 42 0
133 94 46 93 45 42 0
134 95 47 93 45 42 0
135 96 48 93 45 42 0
-136 93 45 97 49 42 0
-137 93 45 98 50 42 0
145 95 47 94 46 42 0
146 96 48 94 46 42 0
147 97 49 94 46 42 0
-148 94 46 98 50 42 0
156 96 48 95 47 42 0
-157 95 47 97 49 42 0
158 98 50 95 47 42 0
166 97 49 96 48 42 0
167 98 50 96 48 42 0
175 98 50 97 49 42 0
42 -100 -99 -52 -51 190 0
42 -101 -99 -53 -51 191 0
42 -99 -102 -51 -54 -192 0
42 -99 -103 -51 -55 -193 0
42 -104 -99 -56 -51 194 0
42 -99 -105 -51 -57 -195 0
42 -101 -100 -53 -52 196 0
42 -102 -100 -54 -52 197 0
42 -103 -100 -55 -52 198 0
42 -100 -104 -52 -56 -199 0
42 -100 -105 -52 -57 -200 0
42 -102 -101 -54 -53 201 0
42 -103 -101 -55 -53 202 0
42 -104 -101 -56 -53 203 0
42 -101 -105 -53 -57 -204 0
42 -103 -102 -55 -54 205 0
42 -102 -104 -54 -56 -206 0
42 -105 -102 -57 -54 207 0
42 -104 -103 -56 -55 208 0
42 -105 -103 -57 -55 209 0
42 -105 -104 -57 -56 210 0
120 45 107 44 106 -43 0
121 46 108 44 106 -43 0
-122 44 106 47 109 -43 0
-123 44 106 48 110 -43 0
124 49 111 44 106 -43 0
-125 44 106 50 112 -43 0
133 46 108 45 107 -43 0
134 47 109 45 107 -43 0
135 48 110 45 107 -43 0
-136 45 107 49 111 -43 0
-137 45 107 50 112 -43 0
145 47 109 46 108 -43 0
146 48 110 46 108 -43 0
147 49 111 46 108 -43 0
-148 46 108 50 112 -43 0
156 48 110 47 109 -43 0
-157 47 109 49 111 -43 0
158 50 112 47 109 -43 0
166 49 111 48 110 -43 0
167 50 112 48 110 -43 0
175 50 112 49 111 -43 0
-43 -52 -51 -114 -113 190 0
-43 -53 -51 -115 -113 191 0
-43 -51 -54 -113 -116 -192 0
-43 -51 -55 -113 -117 -193 0
-43 -56 -51 -118 -113 194 0
-43 -51 -57 -113 -119 -195 0
-43 -53 -52 -115 -114 196 0
-43 -54 -52 -116 -114 197 0
-43 -55 -52 -117 -114 198 0
-43 -52 -56 -114 -118 -199 0
-43 -52 -57 -114 -119 -200 0
-43 -54 -53 -116 -115 201 0
-43 -55 -53 -117 -115 202 0
-43 -56 -53 -118 -115 203 0
-43 -53 -57 -115 -119 -204 0
-43 -55 -54 -117 -116 205 0
-43 -54 -56 -116 -118 -206 0
-43 -57 -54 -119 -116 207 0
-43 -56 -55 -118 -117 208 0
-43 -57 -55 -119 -117 209 0
-43 -57 -56 -119 -118 210 0
133 121 46 120 45 44 0
-136 120 45 124 49 44 0
120 -137 45 -125 44 50 0
147 124 49 121 46 44 0
121 -148 46 -125 44 50 0
-123 -122 44 156 48 47 0
-125 -122 44 158 50 47 0
124 166 49 -123 44 48 0
-125 -123 44 167 50 48 0
145 134 47 133 46 45 0
146 135 48 133 46 45 0
133 -148 46 -137 45 50 0
156 135 48 134 47 45 0
134 -157 47 -136 45 49 0
-137 -136 45 175 50 49 0
156 146 48 145 47 46 0
-157 145 47 147 49 46 0
166 147 49 146 48 46 0
167 158 50 156 48 47 0
158 175 50 -157 47 49 0
175 167 50 166 49 48 0
-53 -52 -51 196 191 190 0
-52 -56 -51 -199 190 194 0
-52 -51 -57 190 -200 -195 0
-56 -53 -51 203 194 191 0
-53 -51 -57 191 -204 -195 0
-51 -55 -54 -193 -192 205 0
-51 -57 -54 -195 -192 207 0
-56 -51 -55 194 208 -193 0
-51 -57 -55 -195 -193 209 0
-54 -53 -52 201 197 196 0
-55 -53 -52 202 198 196 0
-53 -52 -57 196 -204 -200 0
-55 -54 -52 205 198 197 0
-54 -52 -56 197 -206 -199 0
-52 -57 -56 -200 -199 210 0
-55 -54 -53 205 202 201 0
-54 -56 -53 -206 201 203 0
-56 -55 -53 208 203 202 0
-57 -55 -54 209 207 205 0
-57 -54 -56 207 210 -206 0
-57 -56 -55 210 209 208 0
106 77 61 76 60 58 0
107 78 62 76 60 58 0
108 79 63 76 60 58 0
109 80 64 76 60 58 0
110 81 65 76 60 58 0
111 82 66 76 60 58 0
112 83 67 76 60 58 0
76 60 -113 58 -84 -68 0
76 60 -114 58 -85 -69 0
76 60 -115 58 -86 -70 0
76 60 -116 58 -87 -71 0
76 60 -117 58 -88 -72 0
76 60 -118 58 -89 -73 0
76 60 -119 58 -90 -74 0
120 78 62 77 61 58 0
121 79 63 77 61 58 0
-122 77 61 80 64 58 0
-123 77 61 81 65 58 0
124 82 66 77 61 58 0
-125 77 61 83 67 58 0
133 79 63 78 62 58 0
134 80 64 78 62 58 0
135 81 65 78 62 58 0
-136 78 62 82 66 58 0
-137 78 62 83 67 58 0
145 80 64 79 63 58 0
146 81 65 79 63 58 0
147 82 66 79 63 58 0
-148 79 63 83 67 58 0
156 81 65 80 64 58 0
-157 80 64 82 66 58 0
158 83 67 80 64 58 0
166 82 66 81 65 58 0
167 83 67 81 65 58 0
175 83 67 82 66 58 0
58 -85 -84 -69 -68 190 0
58 -86 -84 -70 -68 191 0
58 -84 -87 -68 -71 -192 0
58 -84 -88 -68 -72 -193 0
58 -89 -84 -73 -68 194 0
58 -84 -90 -68 -74 -195 0
58 -86 -85 -70 -69 196 0
58 -87 -85 -71 -69 197 0
58 -88 -85 -72 -69 198 0
58 -85 -89 -69 -73 -199 0
58 -85 -90 -69 -74 -200 0
58 -87 -86 -71 -70 201 0
58 -88 -86 -72 -70 202 0
58 -89 -86 -73 -70 203 0
58 -86 -90 -70 -74 -204 0
58 -88 -87 -72 -71 205 0
58 -87 -89 -71 -73 -206 0
58 -90 -87 -74 -71 207 0
58 -89 -88 -73 -72 208 0
58 -90 -88 -74 -72 209 0
58 -90 -89 -74 -73 210 0
106 61 92 60 91 -59 0
107 62 93 60 91 -59 0
108 63 94 60 91 -59 0
109 64 95 60 91 -59 0
110 65 96 60 91 -59 0
111 66 97 60 91 -59 0
112 67 98 60 91 -59 0
60 91 -113 -59 -68 -99 0
60 91 -114 -59 -69 -100 0
60 91 -115 -59 -70 -101 0
60 91 -116 -59 -71 -102 0
60 91 -117 -59 -72 -103 0
60 91 -118 -59 -73 -104 0
60 91 -119 -59 -74 -105 0
120 62 93 61 92 -59 0
121 63 94 61 92 -59 0
-122 61 92 64 95 -59 0
-123 61 92 65 96 -59 0
124 66 97 61 92 -59 0
-125 61 92 67 98 -59 0
133 63 94 62 93 -59 0
134 64 95 62 93 -59 0
135 65 96 62 93 -59 0
-136 62 93 66 97 -59 0
-137 62 93 67 98 -59 0
145 64 95 63 94 -59 0
146 65 96 63 94 -59 0
147 66 97 63 94 -59 0
-148 63 94 67 98 -59 0
156 65 96 64 95 -59 0
-157 64 95 66 97 -59 0
158 67 98 64 95 -59 0
166 66 97 65 96 -59 0
167 67 98 65 96 -59 0
175 67 98 66 97 -59 0
-59 -69 -68 -100 -99 190 0
-59 -70 -68 -101 -99 191 0
-59 -68 -71 -99 -102 -192 0
-59 -68 -72 -99 -103 -193 0
-59 -73 -68 -104 -99 194 0
-59 -68 -74 -99 -105 -195 0
-59 -70 -69 -101 -100 196 0
-59 -71 -69 -102 -100 197 0
-59 -72 -69 -103 -100 198 0
-59 -69 -73 -100 -104 -199 0
-59 -69 -74 -100 -105 -200 0
-59 -71 -70 -102 -101 201 0
-59 -72 -70 -103 -101 202 0
-59 -73 -70 -104 -101 203 0
-59 -70 -74 -101 -105 -204 0
-59 -72 -71 -103 -102 205 0
-59 -71 -73 -102 -104 -206 0
-59 -74 -71 -105 -102 207 0
-59 -73 -72 -104 -103 208 0
-59 -74 -72 -105 -103 209 0
-59 -74 -73 -105 -104 210 0
120 107 62 106 61 60 0
121 108 63 106 61 60 0
-122 106 61 109 64 60 0
-123 106 61 110 65 60 0
124 111 66 106 61 60 0
-125 106 61 112 67 60 0
133 108 63 107 62 60 0
134 109 64 107 62 60 0
135 110 65 107 62 60 0
-136 107 62 111 66 60 0
-137 107 62 112 67 60 0
145 109 64 108 63 60 0
146 110 65 108 63 60 0
147 111 66 108 63 60 0
-148 108 63 112 67 60 0
156 110 65 109 64 60 0
-157 109 64 111 66 60 0
158 112 67 109 64 60 0
166 111 66 110 65 60 0
167 112 67 110 65 60 0
175 112 67 111 66 60 0
60 -114 -113 -69 -68 190 0
60 -115 -113 -70 -68 191 0
60 -113 -116 -68 -71 -192 0
60 -113 -117 -68 -72 -193 0
60 -118 -113 -73 -68 194 0
60 -113 -119 -68 -74 -195 0
60 -115 -114 -70 -69 196 0
60 -116 -114 -71 -69 197 0
60 -117 -114 -72 -69 198 0
60 -114 -118 -69 -73 -199 0
60 -114 -119 -69 -74 -200 0
60 -116 -115 -71 -70 201 0
60 -117 -115 -72 -70 202 0
60 -118 -115 -73 -70 203 0
60 -115 -119 -70 -74 -204 0
60 -117 -116 -72 -71 205 0
60 -116 -118 -71 -73 -206 0
60 -119 -116 -74 -71 207 0
60 -118 -117 -73 -72 208 0
60 -119 -117 -74 -72 209 0
60 -119 -118 -74 -73 210 0
133 121 63 120 62 61 0
-136 120 62 124 66 61 0
120 -137 62 -125 61 67 0
147 124 66 121 63 61 0
121 -148 63 -125 61 67 0
-123 -122 61 156 65 64 0
-125 -122 61 158 67 64 0
124 166 66 -123 61 65 0
-125 -123 61 167 67 65 0
145 134 64 133 63 62 0
146 135 65 133 63 62 0
133 -148 63 -137 62 67 0
156 135 65 134 64 62 0
134 -157 64 -136 62 66 0
-137 -136 62 175 67 66 0
156 146 65 145 64 63 0
-157 145 64 147 66 63 0
166 147 66 146 65 63 0
167 158 67 156 65 64 0
158 175 67 -157 64 66 0
175 167 67 166 66 65 0
-70 -69 -68 196 191 190 0
-69 -73 -68 -199 190 194 0
-69 -68 -74 190 -200 -195 0
-73 -70 -68 203 194 191 0
-70 -68 -74 191 -204 -195 0
-68 -72 -71 -193 -192 205 0
-68 -74 -71 -195 -192 207 0
-73 -68 -72 194 208 -193 0
-68 -74 -72 -195 -193 209 0
-71 -70 -69 201 197 196 0
-72 -70 -69 202 198 196 0
-70 -69 -74 196 -204 -200 0
-72 -71 -69 205 198 197 0
-71 -69 -73 197 -206 -199 0
-69 -74 -73 -200 -199 210 0
-72 -71 -70 205 202 201 0
-71 -73 -70 -206 201 203 0
-73 -72 -70 208 203 202 0
-74 -72 -71 209 207 205 0
-74 -71 -73 207 210 -206 0
-74 -73 -72 210 209 208 0
106 92 77 91 76 75 0
107 93 78 91 76 75 0
108 94 79 91 76 75 0
109 95 80 91 76 75 0
110 96 81 91 76 75 0
111 97 82 91 76 75 0
112 98 83 91 76 75 0
91 76 -113 75 -99 -84 0
91 76 -114 75 -100 -85 0
91 76 -115 75 -101 -86 0
91 76 -116 75 -102 -87 0
91 76 -117 75 -103 -88 0
91 76 -118 75 -104 -89 0
91 76 -119 75 -105 -90 0
120 93 78 92 77 75 0
121 94 79 92 77 75 0
-122 92 77 95 80 75 0
-123 92 77 96 81 75 0
124 97 82 92 77 75 0
-125 92 77 98 83 75 0
133 94 79 93 78 75 0
134 95 80 93 78 75 0
135 96 81 93 78 75 0
-136 93 78 97 82 75 0
-137 93 78 98 83 75 0
145 95 80 94 79 75 0
146 96 81 94 79 75 0
147 97 82 94 79 75 0
-148 94 79 98 83 75 0
156 96 81 95 80 75 0
-157 95 80 97 82 75 0
158 98 83 95 80 75 0
166 97 82 96 81 75 0
167 98 83 96 81 75 0
175 98 83 97 82 75 0
75 -100 -99 -85 -84 190 0
75 -101 -99 -86 -84 191 0
75 -99 -102 -84 -87 -192 0
75 -99 -103 -84 -88 -193 0
75 -104 -99 -89 -84 194 0
75 -99 -105 -84 -90 -195 0
75 -101 -100 -86 -85 196 0
75 -102 -100 -87 -85 197 0
75 -103 -100 -88 -85 198 0
75 -100 -104 -85 -89 -199 0
75 -100 -105 -85 -90 -200 0
75 -102 -101 -87 -86 201 0
75 -103 -101 -88 -86 202 0
75 -104 -101 -89 -86 203 0
75 -101 -105 -86 -90 -204 0
75 -103 -102 -88 -87 205 0
75 -102 -104 -87 -89 -206 0
75 -105 -102 -90 -87 207 0
75 -104 -103 -89 -88 208 0
75 -105 -103 -90 -88 209 0
75 -105 -104 -90 -89 210 0
120 107 78 106 77 76 0
121 108 79 106 77 76 0
-122 106 77 109 80 76 0
-123 106 77 110 81 76 0
124 111 82 106 77 76 0
-125 106 77 112 83 76 0
133 108 79 107 78 76 0
134 109 80 107 78 76 0
135 110 81 107 78 76 0
-136 107 78 111 82 76 0
-137 107 78 112 83 76 0
145 109 80 108 79 76 0
146 110 81 108 79 76 0
147 111 82 108 79 76 0
-148 108 79 112 83 76 0
156 110 81 109 80 76 0
-157 109 80 111 82 76 0
158 112 83 109 80 76 0
166 111 82 110 81 76 0
167 112 83 110 81 76 0
175 112 83 111 82 76 0
76 -114 -113 -85 -84 190 0
76 -115 -113 -86 -84 191 0
76 -113 -116 -84 -87 -192 0
76 -113 -117 -84 -88 -193 0
76 -118 -113 -89 -84 194 0
76 -113 -119 -84 -90 -195 0
76 -115 -114 -86 -85 196 0
76 -116 -114 -87 -85 197 0
76 -117 -114 -88 -85 198 0
76 -114 -118 -85 -89 -199 0
76 -114 -119 -85 -90 -200 0
76 -116 -115 -87 -86 201 0
76 -117 -115 -88 -86 202 0
76 -118 -115 -89 -86 203 0
76 -115 -119 -86 -90 -204 0
76 -117 -116 -88 -87 205 0
76 -116 -118 -87 -89 -206 0
76 -119 -116 -90 -87 207 0
76 -118 -117 -89 -88 208 0
76 -119 -117 -90 -88 209 0
76 -119 -118 -90 -89 210 0
133 121 79 120 78 77 0
-136 120 78 124 82 77 0
120 -137 78 -125 77 83 0
147 124 82 121 79 77 0
121 -148 79 -125 77 83 0
-123 -122 77 156 81 80 0
-125 -122 77 158 83 80 0
124 166 82 -123 77 81 0
-125 -123 77 167 83 81 0
145 134 80 133 79 78 0
146 135 81 133 79 78 0
133 -148 79 -137 78 83 0
156 135 81 134 80 78 0
134 -157 80 -136 78 82 0
-137 -136 78 175 83 82 0
156 146 81 145 80 79 0
-157 145 80 147 82 79 0
166 147 82 146 81 79 0
167 158 83 156 81 80 0
158 175 83 -157 80 82 0
175 167 83 166 82 81 0
-86 -85 -84 196 191 190 0
-85 -89 -84 -199 190 194 0
-85 -84 -90 190 -200 -195 0
-89 -86 -84 203 194 191 0
-86 -84 -90 191 -204 -195 0
-84 -88 -87 -193 -192 205 0
-84 -90 -87 -195 -192 207 0
-89 -84 -88 194 208 -193 0
-84 -90 -88 -195 -193 209 0
-87 -86 -85 201 197 196 0
-88 -86 -85 202 198 196 0
-86 -85 -90 196 -204 -200 0
-88 -87 -85 205 198 197 0
-87 -85 -89 197 -206 -199 0
-85 -90 -89 -200 -199 210 0
-88 -87 -86 205 202 201 0
-87 -89 -86 -206 201 203 0
-89 -88 -86 208 203 202 0
-90 -88 -87 209 207 205 0
-90 -87 -89 207 210 -206 0
-90 -89 -88 210 209 208 0
120 107 93 106 92 91 0
121 108 94 106 92 91 0
-122 106 92 109 95 91 0
-123 106 92 110 96 91 0
124 111 97 106 92 91 0
-125 106 92 112 98 91 0
133 108 94 107 93 91 0
134 109 95 107 93 91 0
135 110 96 107 93 91 0
-136 107 93 111 97 91 0
-137 107 93 112 98 91 0
145 109 95 108 94 91 0
146 110 96 108 94 91 0
147 111 97 108 94 91 0
-148 108 94 112 98 91 0
156 110 96 109 95 91 0
-157 109 95 111 97 91 0
158 112 98 109 95 91 0
166 111 97 110 96 91 0
167 112 98 110 96 91 0
175 112 98 111 97 91 0
91 -114 -113 -100 -99 190 0
91 -115 -113 -101 -99 191 0
91 -113 -116 -99 -102 -192 0
91 -113 -117 -99 -103 -193 0
91 -118 -113 -104 -99 194 0
91 -113 -119 -99 -105 -195 0
91 -115 -114 -101 -100 196 0
91 -116 -114 -102 -100 197 0
91 -117 -114 -103 -100 198 0
91 -114 -118 -100 -104 -199 0
91 -114 -119 -100 -105 -200 0
91 -116 -115 -102 -101 201 0
91 -117 -115 -103 -101 202 0
91 -118 -115 -104 -101 203 0
91 -115 -119 -101 -105 -204 0
91 -117 -116 -103 -102 205 0
91 -116 -118 -102 -104 -206 0
91 -119 -116 -105 -102 207 0
91 -118 -117 -104 -103 208 0
91 -119 -117 -105 -103 209 0
91 -119 -118 -105 -104 210 0
133 121 94 120 93 92 0
-136 120 93 124 97 92 0
120 -137 93 -125 92 98 0
147 124 97 121 94 92 0
121 -148 94 -125 92 98 0
-123 -122 92 156 96 95 0
-125 -122 92 158 98 95 0
124 166 97 -123 92 96 0
-125 -123 92 167 98 96 0
145 134 95 133 94 93 0
146 135 96 133 94 93 0
133 -148 94 -137 93 98 0
156 135 96 134 95 93 0
134 -157 95 -136 93 97 0
-137 -136 93 175 98 97 0
156 146 96 145 95 94 0
-157 145 95 147 97 94 0
166 147 97 146 96 94 0
167 158 98 156 96 95 0
158 175 98 -157 95 97 0
175 167 98 166 97 96 0
-101 -100 -99 196 191 190 0
-100 -104 -99 -199 190 194 0
-100 -99 -105 190 -200 -195 0
-104 -101 -99 203 194 191 0
-101 -99 -105 191 -204 -195 0
-99 -103 -102 -193 -192 205 0
-99 -105 -102 -195 -192 207 0
-104 -99 -103 194 208 -193 0
-99 -105 -103 -195 -193 209 0
-102 -101 -100 201 197 196 0
-103 -101 -100 202 198 196 0
-101 -100 -105 196 -204 -200 0
-103 -102 -100 205 198 197 0
-102 -100 -104 197 -206 -199 0
-100 -105 -104 -200 -199 210 0
-103 -102 -101 205 202 201 0
-102 -104 -101 -206 201 203 0
-104 -103 -101 208 203 202 0
-105 -103 -102 209 207 205 0
-105 -102 -104 207 210 -206 0
-105 -104 -103 210 209 208 0
133 121 108 120 107 106 0
-136 120 107 124 111 106 0
120 -137 107 -125 106 112 0
147 124 111 121 108 106 0
121 -148 108 -125 106 112 0
-123 -122 106 156 110 109 0
-125 -122 106 158 112 109 0
124 166 111 -123 106 110 0
-125 -123 106 167 112 110 0
145 134 109 133 108 107 0
146 135 110 133 108 107 0
133 -148 108 -137 107 112 0
156 135 110 134 109 107 0
134 -157 109 -136 107 111 0
-137 -136 107 175 112 111 0
156 146 110 145 109 108 0
-157 145 109 147 111 108 0
166 147 111 146 110 108 0
167 158 112 156 110 109 0
158 175 112 -157 109 111 0
175 167 112 166 111 110 0
-115 -114 -113 196 191 190 0
-114 -118 -113 -199 190 194 0
-114 -113 -119 190 -200 -195 0
-118 -115 -113 203 194 191 0
-115 -113 -119 191 -204 -195 0
-113 -117 -116 -193 -192 205 0
-113 -119 -116 -195 -192 207 0
-118 -113 -117 194 208 -193 0
-113 -119 -117 -195 -193 209 0
-116 -115 -114 201 197 196 0
-117 -115 -114 202 198 196 0
-115 -114 -119 196 -204 -200 0
-117 -116 -114 205 198 197 0
-116 -114 -118 197 -206 -199 0
-114 -119 -118 -200 -199 210 0
-117 -116 -115 205 202 201 0
-116 -118 -115 -206 201 203 0
-118 -117 -115 208 203 202 0
-119 -117 -116 209 207 205 0
-119 -116 -118 207 210 -206 0
-119 -118 -117 210 209 208 0
133 121 -148 120 -137 -125 0
149 138 126 133 121 120 0
150 139 127 133 121 120 0
151 140 128 133 121 120 0
152 141 129 133 121 120 0
153 142 130 133 121 120 0
154 143 131 133 121 120 0
155 144 132 133 121 120 0
138 176 126 -136 120 124 0
139 177 127 -136 120 124 0
140 178 128 -136 120 124 0
141 179 129 -136 120 124 0
142 180 130 -136 120 124 0
143 181 131 -136 120 124 0
144 182 132 -136 120 124 0
138 126 183 120 -137 -125 0
139 127 184 120 -137 -125 0
140 128 185 120 -137 -125 0
141 129 186 120 -137 -125 0
142 130 187 120 -137 -125 0
143 131 188 120 -137 -125 0
144 132 189 120 -137 -125 0
190 139 127 138 126 120 0
191 140 128 138 126 120 0
-192 138 126 141 129 120 0
-193 138 126 142 130 120 0
194 143 131 138 126 120 0
-195 138 126 144 132 120 0
196 140 128 139 127 120 0
197 141 129 139 127 120 0
198 142 130 139 127 120 0
-199 139 127 143 131 120 0
-200 139 127 144 132 120 0
201 141 129 140 128 120 0
202 142 130 140 128 120 0
203 143 131 140 128 120 0
-204 140 128 144 132 120 0
205 142 130 141 129 120 0
-206 141 129 143 131 120 0
207 144 132 141 129 120 0
208 143 131 142 130 120 0
209 144 132 142 130 120 0
210 144 132 143 131 120 0
176 149 126 147 124 121 0
177 150 127 147 124 121 0
178 151 128 147 124 121 0
179 152 129 147 124 121 0
180 153 130 147 124 121 0
181 154 131 147 124 121 0
182 155 132 147 124 121 0
149 126 183 121 -148 -125 0
150 127 184 121 -148 -125 0
151 128 185 121 -148 -125 0
152 129 186 121 -148 -125 0
153 130 187 121 -148 -125 0
154 131 188 121 -148 -125 0
155 132 189 121 -148 -125 0
190 150 127 149 126 121 0
191 151 128 149 126 121 0
-192 149 126 152 129 121 0
-193 149 126 153 130 121 0
194 154 131 149 126 121 0
-195 149 126 155 132 121 0
196 151 128 150 127 121 0
197 152 129 150 127 121 0
198 153 130 150 127 121 0
-199 150 127 154 131 121 0
-200 150 127 155 132 121 0
201 152 129 151 128 121 0
202 153 130 151 128 121 0
203 154 131 151 128 121 0
-204 151 128 155 132 121 0
205 153 130 152 129 121 0
-206 152 129 154 131 121 0
207 155 132 152 129 121 0
208 154 131 153 130 121 0
209 155 132 153 130 121 0
210 155 132 154 131 121 0
-125 -123 -122 167 158 156 0
126 168 159 -123 -122 156 0
127 169 160 -123 -122 156 0
128 170 161 -123 -122 156 0
129 171 162 -123 -122 156 0
130 172 163 -123 -122 156 0
131 173 164 -123 -122 156 0
132 174 165 -123 -122 156 0
126 183 159 -125 -122 158 0
127 184 160 -125 -122 158 0
128 185 161 -125 -122 158 0
129 186 162 -125 -122 158 0
130 187 163 -125 -122 158 0
131 188 164 -125 -122 158 0
132 189 165 -125 -122 158 0
190 127 160 126 159 -122 0
191 128 161 126 159 -122 0
-192 126 159 129 162 -122 0
-193 126 159 130 163 -122 0
194 131 164 126 159 -122 0
-195 126 159 132 165 -122 0
196 128 161 127 160 -122 0
197 129 162 127 160 -122 0
198 130 163 127 160 -122 0
-199 127 160 131 164 -122 0
-200 127 160 132 165 -122 0
201 129 162 128 161 -122 0
202 130 163 128 161 -122 0
203 131 164 128 161 -122 0
-204 128 161 132 165 -122 0
205 130 163 129 162 -122 0
-206 129 162 131 164 -122 0
207 132 165 129 162 -122 0
208 131 164 130 163 -122 0
209 132 165 130 163 -122 0
210 132 165 131 164 -122 0
176 126 168 124 166 -123 0
177 127 169 124 166 -123 0
178 128 170 124 166 -123 0
179 129 171 124 166 -123 0
180 130 172 124 166 -123 0
181 131 173 124 166 -123 0
182 132 174 124 166 -123 0
126 183 168 -125 -123 167 0
127 184 169 -125 -123 167 0
128 185 170 -125 -123 167 0
129 186 171 -125 -123 167 0
130 187 172 -125 -123 167 0
131 188 173 -125 -123 167 0
132 189 174 -125 -123 167 0
190 127 169 126 168 -123 0
191 128 170 126 168 -123 0
-192 126 168 129 171 -123 0
-193 126 168 130 172 -123 0
194 131 173 126 168 -123 0
-195 126 168 132 174 -123 0
196 128 170 127 169 -123 0
197 129 171 127 169 -123 0
198 130 172 127 169 -123 0
-199 127 169 131 173 -123 0
-200 127 169 132 174 -123 0
201 129 171 128 170 -123 0
202 130 172 128 170 -123 0
203 131 173 128 170 -123 0
-204 128 170 132 174 -123 0
205 130 172 129 171 -123 0
-206 129 171 131 173 -123 0
207 132 174 129 171 -123 0
208 131 173 130 172 -123 0
209 132 174 130 172 -123 0
210 132 174 131 173 -123 0
190 177 127 176 126 124 0
191 178 128 176 126 124 0
-192 176 126 179 129 124 0
-193 176 126 180 130 124 0
194 181 131 176 126 124 0
-195 176 126 182 132 124 0
196 178 128 177 127 124 0
197 179 129 177 127 124 0
198 180 130 177 127 124 0
-199 177 127 181 131 124 0
-200 177 127 182 132 124 0
201 179 129 178 128 124 0
202 180 130 178 128 124 0
203 181 131 178 128 124 0
-204 178 128 182 132 124 0
205 180 130 179 129 124 0
-206 179 129 181 131 124 0
207 182 132 179 129 124 0
208 181 131 180 130 124 0
209 182 132 180 130 124 0
210 182 132 181 131 124 0
190 127 184 126 183 -125 0
191 128 185 126 183 -125 0
-192 126 183 129 186 -125 0
-193 126 183 130 187 -125 0
194 131 188 126 183 -125 0
-195 126 183 132 189 -125 0
196 128 185 127 184 -125 0
197 129 186 127 184 -125 0
198 130 187 127 184 -125 0
-199 127 184 131 188 -125 0
-200 127 184 132 189 -125 0
201 129 186 128 185 -125 0
202 130 187 128 185 -125 0
203 131 188 128 185 -125 0
-204 128 185 132 189 -125 0
205 130 187 129 186 -125 0
-206 129 186 131 188 -125 0
207 132 189 129 186 -125 0
208 131 188 130 187 -125 0
209 132 189 130 187 -125 0
210 132 189 131 188 -125 0
196 191 128 190 127 126 0
-199 190 127 194 131 126 0
190 -200 127 -195 126 132 0
203 194 131 191 128 126 0
191 -204 128 -195 126 132 0
-193 -192 126 205 130 129 0
-195 -192 126 207 132 129 0
194 208 131 -193 126 130 0
-195 -193 126 209 132 130 0
201 197 129 196 128 127 0
202 198 130 196 128 127 0
196 -204 128 -200 127 132 0
205 198 130 197 129 127 0
197 -206 129 -199 127 131 0
-200 -199 127 210 132 131 0
205 202 130 201 129 128 0
-206 201 129 203 131 128 0
208 203 131 202 130 128 0
209 207 132 205 130 129 0
207 210 132 -206 129 131 0
210 209 132 208 131 130 0
156 146 135 145 134 133 0
159 149 138 145 134 133 0
160 150 139 145 134 133 0
161 151 140 145 134 133 0
162 152 141 145 134 133 0
163 153 142 145 134 133 0
164 154 143 145 134 133 0
165 155 144 145 134 133 0
168 149 138 146 135 133 0
169 150 139 146 135 133 0
170 151 140 146 135 133 0
171 152 141 146 135 133 0
172 153 142 146 135 133 0
173 154 143 146 135 133 0
174 155 144 146 135 133 0
149 138 183 133 -148 -137 0
150 139 184 133 -148 -137 0
151 140 185 133 -148 -137 0
152 141 186 133 -148 -137 0
153 142 187 133 -148 -137 0
154 143 188 133 -148 -137 0
155 144 189 133 -148 -137 0
190 150 139 149 138 133 0
191 151 140 149 138 133 0
-192 149 138 152 141 133 0
-193 149 138 153 142 133 0
194 154 143 149 138 133 0
-195 149 138 155 144 133 0
196 151 140 150 139 133 0
197 152 141 150 139 133 0
198 153 142 150 139 133 0
-199 150 139 154 143 133 0
-200 150 139 155 144 133 0
201 152 141 151 140 133 0
202 153 142 151 140 133 0
203 154 143 151 140 133 0
-204 151 140 155 144 133 0
205 153 142 152 141 133 0
-206 152 141 154 143 133 0
207 155 144 152 141 133 0
208 154 143 153 142 133 0
209 155 144 153 142 133 0
210 155 144 154 143 133 0
168 159 138 156 135 134 0
169 160 139 156 135 134 0
170 161 140 156 135 134 0
171 162 141 156 135 134 0
172 163 142 156 135 134 0
173 164 143 156 135 134 0
174 165 144 156 135 134 0
159 138 176 134 -157 -136 0
160 139 177 134 -157 -136 0
161 140 178 134 -157 -136 0
162 141 179 134 -157 -136 0
163 142 180 134 -157 -136 0
164 143 181 134 -157 -136 0
165 144 182 134 -157 -136 0
190 160 139 159 138 134 0
191 161 140 159 138 134 0
-192 159 138 162 141 134 0
-193 159 138 163 142 134 0
194 164 143 159 138 134 0
-195 159 138 165 144 134 0
196 161 140 160 139 134 0
197 162 141 160 139 134 0
198 163 142 160 139 134 0
-199 160 139 164 143 134 0
-200 160 139 165 144 134 0
201 162 141 161 140 134 0
202 163 142 161 140 134 0
203 164 143 161 140 134 0
-204 161 140 165 144 134 0
205 163 142 162 141 134 0
-206 162 141 164 143 134 0
207 165 144 162 141 134 0
208 164 143 163 142 134 0
209 165 144 163 142 134 0
210 165 144 164 143 134 0
190 169 139 168 138 135 0
191 170 140 168 138 135 0
-192 168 138 171 141 135 0
-193 168 138 172 142 135 0
194 173 143 168 138 135 0
-195 168 138 174 144 135 0
196 170 140 169 139 135 0
197 171 141 169 139 135 0
198 172 142 169 139 135 0
-199 169 139 173 143 135 0
-200 169 139 174 144 135 0
201 171 141 170 140 135 0
202 172 142 170 140 135 0
203 173 143 170 140 135 0
-204 170 140 174 144 135 0
205 172 142 171 141 135 0
-206 171 141 173 143 135 0
207 174 144 171 141 135 0
208 173 143 172 142 135 0
209 174 144 172 142 135 0
210 174 144 173 143 135 0
138 183 176 -137 -136 175 0
139 184 177 -137 -136 175 0
140 185 178 -137 -136 175 0
141 186 179 -137 -136 175 0
142 187 180 -137 -136 175 0
143 188 181 -137 -136 175 0
144 189 182 -137 -136 175 0
190 139 177 138 176 -136 0
191 140 178 138 176 -136 0
-192 138 176 141 179 -136 0
-193 138 176 142 180 -136 0
194 143 181 138 176 -136 0
-195 138 176 144 182 -136 0
196 140 178 139 177 -136 0
197 141 179 139 177 -136 0
198 142 180 139 177 -136 0
-199 139 177 143 181 -136 0
-200 139 177 144 182 -136 0
201 141 179 140 178 -136 0
202 142 180 140 178 -136 0
203 143 181 140 178 -136 0
-204 140 178 144 182 -136 0
205 142 180 141 179 -136 0
-206 141 179 143 181 -136 0
207 144 182 141 179 -136 0
208 143 181 142 180 -136 0
209 144 182 142 180 -136 0
210 144 182 143 181 -136 0
190 139 184 138 183 -137 0
191 140 185 138 183 -137 0
-192 138 183 141 186 -137 0
-193 138 183 142 187 -137 0
194 143 188 138 183 -137 0
-195 138 183 144 189 -137 0
196 140 185 139 184 -137 0
197 141 186 139 184 -137 0
198 142 187 139 184 -137 0
-199 139 184 143 188 -137 0
-200 139 184 144 189 -137 0
201 141 186 140 185 -137 0
202 142 187 140 185 -137 0
203 143 188 140 185 -137 0
-204 140 185 144 189 -137 0
205 142 187 141 186 -137 0
-206 141 186 143 188 -137 0
207 144 189 141 186 -137 0
208 143 188 142 187 -137 0
209 144 189 142 187 -137 0
210 144 189 143 188 -137 0
196 191 140 190 139 138 0
-199 190 139 194 143 138 0
190 -200 139 -195 138 144 0
203 194 143 191 140 138 0
191 -204 140 -195 138 144 0
-193 -192 138 205 142 141 0
-195 -192 138 207 144 141 0
194 208 143 -193 138 142 0
-195 -193 138 209 144 142 0
201 197 141 196 140 139 0
202 198 142 196 140 139 0
196 -204 140 -200 139 144 0
205 198 142 197 141 139 0
197 -206 141 -199 139 143 0
-200 -199 139 210 144 143 0
205 202 142 201 141 140 0
-206 201 141 203 143 140 0
208 203 143 202 142 140 0
209 207 144 205 142 141 0
207 210 144 -206 141 143 0
210 209 144 208 143 142 0
168 159 149 156 146 145 0
169 160 150 156 146 145 0
170 161 151 156 146 145 0
171 162 152 156 146 145 0
172 163 153 156 146 145 0
173 164 154 156 146 145 0
174 165 155 156 146 145 0
159 176 149 -157 145 147 0
160 177 150 -157 145 147 0
161 178 151 -157 145 147 0
162 179 152 -157 145 147 0
163 180 153 -157 145 147 0
164 181 154 -157 145 147 0
165 182 155 -157 145 147 0
190 160 150 159 149 145 0
191 161 151 159 149 145 0
-192 159 149 162 152 145 0
-193 159 149 163 153 145 0
194 164 154 159 149 145 0
-195 159 149 165 155 145 0
196 161 151 160 150 145 0
197 162 152 160 150 145 0
198 163 153 160 150 145 0
-199 160 150 164 154 145 0
-200 160 150 165 155 145 0
201 162 152 161 151 145 0
202 163 153 161 151 145 0
203 164 154 161 151 145 0
-204 161 151 165 155 145 0
205 163 153 162 152 145 0
-206 162 152 164 154 145 0
207 165 155 162 152 145 0
208 164 154 163 153 145 0
209 165 155 163 153 145 0
210 165 155 164 154 145 0
176 168 149 166 147 146 0
177 169 150 166 147 146 0
178 170 151 166 147 146 0
179 171 152 166 147 146 0
180 172 153 166 147 146 0
181 173 154 166 147 146 0
182 174 155 166 147 146 0
190 169 150 168 149 146 0
191 170 151 168 149 146 0
-192 168 149 171 152 146 0
-193 168 149 172 153 146 0
194 173 154 168 149 146 0
-195 168 149 174 155 146 0
196 170 151 169 150 146 0
197 171 152 169 150 146 0
198 172 153 169 150 146 0
-199 169 150 173 154 146 0
-200 169 150 174 155 146 0
201 171 152 170 151 146 0
202 172 153 170 151 146 0
203 173 154 170 151 146 0
-204 170 151 174 155 146 0
205 172 153 171 152 146 0
-206 171 152 173 154 146 0
207 174 155 171 152 146 0
208 173 154 172 153 146 0
209 174 155 172 153 146 0
210 174 155 173 154 146 0
190 177 150 176 149 147 0
191 178 151 176 149 147 0
-192 176 149 179 152 147 0
-193 176 149 180 153 147 0
194 181 154 176 149 147 0
-195 176 149 182 155 147 0
196 178 151 177 150 147 0
197 179 152 177 150 147 0
198 180 153 177 150 147 0
-199 177 150 181 154 147 0
-200 177 150 182 155 147 0
201 179 152 178 151 147 0
202 180 153 178 151 147 0
203 181 154 178 151 147 0
-204 178 151 182 155 147 0
205 180 153 179 152 147 0
-206 179 152 181 154 147 0
207 182 155 179 152 147 0
208 181 154 180 153 147 0
209 182 155 180 153 147 0
210 182 155 181 154 147 0
190 150 184 149 183 -148 0
191 151 185 149 183 -148 0
-192 149 183 152 186 -148 0
-193 149 183 153 187 -148 0
194 154 188 149 183 -148 0
-195 149 183 155 189 -148 0
196 151 185 150 184 -148 0
197 152 186 150 184 -148 0
198 153 187 150 184 -148 0
-199 150 184 154 188 -148 0
-200 150 184 155 189 -148 0
201 152 186 151 185 -148 0
202 153 187 151 185 -148 0
203 154 188 151 185 -148 0
-204 151 185 155 189 -148 0
205 153 187 152 186 -148 0
-206 152 186 154 188 -148 0
207 155 189 152 186 -148 0
208 154 188 153 187 -148 0
209 155 189 153 187 -148 0
210 155 189 154 188 -148 0
196 191 151 190 150 149 0
-199 190 150 194 154 149 0
190 -200 150 -195 149 155 0
203 194 154 191 151 149 0
191 -204 151 -195 149 155 0
-193 -192 149 205 153 152 0
-195 -192 149 207 155 152 0
194 208 154 -193 149 153 0
-195 -193 149 209 155 153 0
201 197 152 196 151 150 0
202 198 153 196 151 150 0
196 -204 151 -200 150 155 0
205 198 153 197 152 150 0
197 -206 152 -199 150 154 0
-200 -199 150 210 155 154 0
205 202 153 201 152 151 0
-206 201 152 203 154 151 0
208 203 154 202 153 151 0
209 207 155 205 153 152 0
207 210 155 -206 152 154 0
210 209 155 208 154 153 0
183 168 159 167 158 156 0
184 169 160 167 158 156 0
185 170 161 167 158 156 0
186 171 162 167 158 156 0
187 172 163 167 158 156 0
188 173 164 167 158 156 0
189 174 165 167 158 156 0
190 169 160 168 159 156 0
191 170 161 168 159 156 0
-192 168 159 171 162 156 0
-193 168 159 172 163 156 0
194 173 164 168 159 156 0
-195 168 159 174 165 156 0
196 170 161 169 160 156 0
197 171 162 169 160 156 0
198 172 163 169 160 156 0
-199 169 160 173 164 156 0
-200 169 160 174 165 156 0
201 171 162 170 161 156 0
202 172 163 170 161 156 0
203 173 164 170 161 156 0
-204 170 161 174 165 156 0
205 172 163 171 162 156 0
-206 171 162 173 164 156 0
207 174 165 171 162 156 0
208 173 164 172 163 156 0
209 174 165 172 163 156 0
210 174 165 173 164 156 0
183 159 176 158 175 -157 0
184 160 177 158 175 -157 0
185 161 178 158 175 -157 0
186 162 179 158 175 -157 0
187 163 180 158 175 -157 0
188 164 181 158 175 -157 0
189 165 182 158 175 -157 0
190 160 177 159 176 -157 0
191 161 178 159 176 -157 0
-192 159 176 162 179 -157 0
-193 159 176 163 180 -157 0
194 164 181 159 176 -157 0
-195 159 176 165 182 -157 0
196 161 178 160 177 -157 0
197 162 179 160 177 -157 0
198 163 180 160 177 -157 0
-199 160 177 164 181 -157 0
-200 160 177 165 182 -157 0
201 162 179 161 178 -157 0
202 163 180 161 178 -157 0
203 164 181 161 178 -157 0
-204 161 178 165 182 -157 0
205 163 180 162 179 -157 0
-206 162 179 164 181 -157 0
207 165 182 162 179 -157 0
208 164 181 163 180 -157 0
209 165 182 163 180 -157 0
210 165 182 164 181 -157 0
190 184 160 183 159 158 0
191 185 161 183 159 158 0
-192 183 159 186 162 158 0
-193 183 159 187 163 158 0
194 188 164 183 159 158 0
-195 183 159 189 165 158 0
196 185 161 184 160 158 0
197 186 162 184 160 158 0
198 187 163 184 160 158 0
-199 184 160 188 164 158 0
-200 184 160 189 165 158 0
201 186 162 185 161 158 0
202 187 163 185 161 158 0
203 188 164 185 161 158 0
-204 185 161 189 165 158 0
205 187 163 186 162 158 0
-206 186 162 188 164 158 0
207 189 165 186 162 158 0
208 188 164 187 163 158 0
209 189 165 187 163 158 0
210 189 165 188 164 158 0
196 191 161 190 160 159 0
-199 190 160 194 164 159 0
190 -200 160 -195 159 165 0
203 194 164 191 161 159 0
191 -204 161 -195 159 165 0
-193 -192 159 205 163 162 0
-195 -192 159 207 165 162 0
194 208 164 -193 159 163 0
-195 -193 159 209 165 163 0
201 197 162 196 161 160 0
202 198 163 196 161 160 0
196 -204 161 -200 160 165 0
205 198 163 197 162 160 0
197 -206 162 -199 160 164 0
-200 -199 160 210 165 164 0
205 202 163 201 162 161 0
-206 201 162 203 164 161 0
208 203 164 202 163 161 0
209 207 165 205 163 162 0
207 210 165 -206 162 164 0
210 209 165 208 164 163 0
183 176 168 175 167 166 0
184 177 169 175 167 166 0
185 178 170 175 167 166 0
186 179 171 175 167 166 0
187 180 172 175 167 166 0
188 181 173 175 167 166 0
189 182 174 175 167 166 0
190 177 169 176 168 166 0
191 178 170 176 168 166 0
-192 176 168 179 171 166 0
-193 176 168 180 172 166 0
194 181 173 176 168 166 0
-195 176 168 182 174 166 0
196 178 170 177 169 166 0
197 179 171 177 169 166 0
198 180 172 177 169 166 0
-199 177 169 181 173 166 0
-200 177 169 182 174 166 0
201 179 171 178 170 166 0
202 180 172 178 170 166 0
203 181 173 178 170 166 0
-204 178 170 182 174 166 0
205 180 172 179 171 166 0
-206 179 171 181 173 166 0
207 182 174 179 171 166 0
208 181 173 180 172 166 0
209 182 174 180 172 166 0
210 182 174 181 173 166 0
190 184 169 183 168 167 0
191 185 170 183 168 167 0
-192 183 168 186 171 167 0
-193 183 168 187 172 167 0
194 188 173 183 168 167 0
-195 183 168 189 174 167 0
196 185 170 184 169 167 0
197 186 171 184 169 167 0
198 187 172 184 169 167 0
-199 184 169 188 173 167 0
-200 184 169 189 174 167 0
201 186 171 185 170 167 0
202 187 172 185 170 167 0
203 188 173 185 170 167 0
-204 185 170 189 174 167 0
205 187 172 186 171 167 0
-206 186 171 188 173 167 0
207 189 174 186 171 167 0
208 188 173 187 172 167 0
209 189 174 187 172 167 0
210 189 174 188 173 167 0
196 191 170 190 169 168 0
-199 190 169 194 173 168 0
190 -200 169 -195 168 174 0
203 194 173 191 170 168 0
191 -204 170 -195 168 174 0
-193 -192 168 205 172 171 0
-195 -192 168 207 174 171 0
194 208 173 -193 168 172 0
-195 -193 168 209 174 172 0
201 197 171 196 170 169 0
202 198 172 196 170 169 0
196 -204 170 -200 169 174 0
205 198 172 197 171 169 0
197 -206 171 -199 169 173 0
-200 -199 169 210 174 173 0
205 202 172 201 171 170 0
-206 201 171 203 173 170 0
208 203 173 202 172 170 0
209 207 174 205 172 171 0
207 210 174 -206 171 173 0
210 209 174 208 173 172 0
190 184 177 183 176 175 0
191 185 178 183 176 175 0
-192 183 176 186 179 175 0
-193 183 176 187 180 175 0
194 188 181 183 176 175 0
-195 183 176 189 182 175 0
196 185 178 184 177 175 0
197 186 179 184 177 175 0
198 187 180 184 177 175 0
-199 184 177 188 181 175 0
-200 184 177 189 182 175 0
201 186 179 185 178 175 0
202 187 180 185 178 175 0
203 188 181 185 178 175 0
-204 185 178 189 182 175 0
205 187 180 186 179 175 0
-206 186 179 188 181 175 0
207 189 182 186 179 175 0
208 188 181 187 180 175 0
209 189 182 187 180 175 0
210 189 182 188 181 175 0
196 191 178 190 177 176 0
-199 190 177 194 181 176 0
190 -200 177 -195 176 182 0
203 194 181 191 178 176 0
191 -204 178 -195 176 182 0
-193 -192 176 205 180 179 0
-195 -192 176 207 182 179 0
194 208 181 -193 176 180 0
-195 -193 176 209 182 180 0
201 197 179 196 178 177 0
202 198 180 196 178 177 0
196 -204 178 -200 177 182 0
205 198 180 197 179 177 0
197 -206 179 -199 177 181 0
-200 -199 177 210 182 181 0
205 202 180 201 179 178 0
-206 201 179 203 181 178 0
208 203 181 202 180 178 0
209 207 182 205 180 179 0
207 210 182 -206 179 181 0
210 209 182 208 181 180 0
196 191 185 190 184 183 0
-199 190 184 194 188 183 0
190 -200 184 -195 183 189 0
203 194 188 191 185 183 0
191 -204 185 -195 183 189 0
-193 -192 183 205 187 186 0
-195 -192 183 207 189 186 0
194 208 188 -193 183 187 0
-195 -193 183 209 189 187 0
201 197 186 196 185 184 0
202 198 187 196 185 184 0
196 -204 185 -200 184 189 0
205 198 187 197 186 184 0
197 -206 186 -199 184 188 0
-200 -199 184 210 189 188 0
205 202 187 201 186 185 0
-206 201 186 203 188 185 0
208 203 188 202 187 185 0
209 207 189 205 187 186 0
207 210 189 -206 186 188 0
210 209 189 208 188 187 0
196 191 -204 190 -200 -195 0
-195 -193 -192 209 207 205 0
205 202 198 201 197 196 0
